 vasp.6.4.2 20Jul23 (build Nov 27 2023 21:25:52) complex

 executed on             LinuxIFC date 2024.12.10  16:54:29

 INCAR:
   ALGO = All
   EDIFF = 0.00135
   ENCUT = 520
   HFSCREEN = 0.2
   IBRION = 2
   ICHARG = 1
   ISIF = 3
   ISMEAR = 0
   ISPIN = 2
   LHFCALC = True
   LMAXMIX = 4
   LORBIT = 11
   LREAL = Auto
   LWAVE = False
   MAGMOM = 5*0.6 6*3.0 16*0.6
   NELM = 100
   NSW = 99
   PREC = Accurate
   PRECFOCK = Fast
   SIGMA = 0.05

 POTCAR:    PAW_PBE Na_pv 19Sep2006
 POTCAR:    PAW_PBE Li_sv 10Sep2004
 POTCAR:    PAW_PBE Mn_pv 02Aug2007
 POTCAR:    PAW_PBE O 08Apr2002
|           W    W    AA    RRRRR   N    N  II  N    N   GGGG   !!!           |
|           W    W   A  A   R    R  NN   N  II  NN   N  G    G  !!!           |
|           W    W  A    A  R    R  N N  N  II  N N  N  G       !!!           |
|           W WW W  AAAAAA  RRRRR   N  N N  II  N  N N  G  GGG   !            |
|           WW  WW  A    A  R   R   N   NN  II  N   NN  G    G                |
|           W    W  A    A  R    R  N    N  II  N    N   GGGG   !!!           |
|     For optimal performance we recommend to set                             |
|       NCORE = 2 up to number-of-cores-per-socket                            |
|     This setting can greatly improve the performance of VASP for DFT.       |
|     The default, NCORE=1 might be grossly inefficient on modern             |
|     multi-core architectures or massively parallel machines. Do your        |
|     Unfortunately you need to use the default for GW and RPA                |
|     calculations (for HF NCORE is supported but not extensively tested      |
|     yet).                                                                   |

 POTCAR:    PAW_PBE Na_pv 19Sep2006
   VRHFIN =Na: p6s1

   TITEL  = PAW_PBE Na_pv 19Sep2006
   POMASS =   22.990; ZVAL   =    7.000    mass and valenz
   ENMAX  =  259.561; ENMIN  =  194.671 eV

 POTCAR:    PAW_PBE Li_sv 10Sep2004
   VRHFIN =Li: 1s2s2p

   TITEL  = PAW_PBE Li_sv 10Sep2004
   POMASS =    7.010; ZVAL   =    3.000    mass and valenz
   ENMAX  =  499.034; ENMIN  =  374.276 eV

 POTCAR:    PAW_PBE Mn_pv 02Aug2007
   VRHFIN =Mn: 3p4s3d

   TITEL  = PAW_PBE Mn_pv 02Aug2007
   POMASS =   54.938; ZVAL   =   13.000    mass and valenz
   ENMAX  =  269.864; ENMIN  =  202.398 eV

 POTCAR:    PAW_PBE O 08Apr2002
   VRHFIN =O: s2p4

   TITEL  = PAW_PBE O 08Apr2002
   POMASS =   16.000; ZVAL   =    6.000    mass and valenz
   ENMAX  =  400.000; ENMIN  =  300.000 eV

 Optimization of the real space projectors (new method)

 maximal supplied QI-value         = 17.01
 optimisation between [QCUT,QGAM] = [ 11.57, 23.30] = [ 37.45,152.03] Ry
 Optimized for a Real-space Cutoff    1.45 Angstroem

   l    n(q)    QCUT    max X(q) W(low)/X(q) W(high)/X(q)  e(spline)
   1     10    11.565     4.940    0.87E-04    0.13E-03    0.13E-06
   1     10    11.565     6.253    0.13E-03    0.19E-03    0.20E-06
   0     10    11.565    37.438    0.53E-04    0.73E-05    0.79E-07
   0     10    11.565     9.606    0.27E-04    0.60E-05    0.56E-07
 Optimization of the real space projectors (new method)

[...]

   l    n(q)    QCUT    max X(q) W(low)/X(q) W(high)/X(q)  e(spline)
   1     10    11.539     3.658    0.56E-04    0.12E-03    0.13E-06
   1     10    11.539     5.612    0.11E-03    0.23E-03    0.24E-06
   2      9    11.539    55.373    0.45E-04    0.92E-04    0.22E-06
   2      9    11.539    50.863    0.47E-04    0.95E-04    0.22E-06
   0     10    11.539    79.536    0.46E-04    0.27E-04    0.11E-06
   0     10    11.539    38.668    0.38E-04    0.25E-04    0.10E-06
 Optimization of the real space projectors (new method)

 maximal supplied QI-value         = 24.76
 optimisation between [QCUT,QGAM] = [ 11.64, 23.27] = [ 37.91,151.63] Ry
 Optimized for a Real-space Cutoff    1.14 Angstroem

   l    n(q)    QCUT    max X(q) W(low)/X(q) W(high)/X(q)  e(spline)
   0      8    11.635    20.381    0.10E-03    0.33E-03    0.24E-06
   0      8    11.635    15.268    0.11E-03    0.35E-03    0.26E-06
   1      7    11.635     5.964    0.24E-03    0.31E-03    0.30E-06
   1      7    11.635     5.382    0.22E-03    0.25E-03    0.26E-06
  PAW_PBE Na_pv 19Sep2006               :
  PAW_PBE Li_sv 10Sep2004               :
  PAW_PBE Mn_pv 02Aug2007               :
  PAW_PBE O 08Apr2002                   :

 POSCAR: Na6 Li2 Mn6 O16
  positions in direct lattice
  velocities in cartesian coordinates
 exchange correlation table for  LEXCH =        8
   RHO(1)=    0.500       N(1)  =     2000
   RHO(2)=  100.500       N(2)  =     4000

 ion  position               nearest neighbor table
   1  0.494  0.510  0.248-  16 2.37  11 2.82   8 2.85
   2  0.141  0.287  0.750-
   3  0.814  0.151  0.250-
   4  0.500  0.982  0.543-  14 1.87  12 1.88  13 1.88
   5  0.002  0.022  0.006-  21 1.99  20 2.02  23 2.03  26 2.03  27 2.08  24 2.10   9 2.84
   6  0.999  0.988  0.497-  14 1.90  12 1.91  17 1.92  19 1.93  15 1.97  16 1.99   7 2.92   8 2.92
                             8 2.93   7 2.93
   7  0.001  0.488  0.499-  14 1.90  13 1.90  17 1.92  18 1.94  15 1.97  16 1.99   8 2.90   6 2.92
                             8 2.92   6 2.93
   8  0.499  0.489  0.499-  13 1.89  12 1.90  15 1.95  19 1.95  18 1.95  16 2.00   1 2.85   7 2.90
                             6 2.92   7 2.92   6 2.93
   9  0.004  0.510  0.001-  26 1.90  21 1.91  27 1.91  20 1.92  25 1.96  22 1.99   5 2.84  11 2.89
                            10 2.92  10 2.92  11 2.94
  10  0.502  0.014  0.995-  21 1.91  26 1.91  24 1.92  23 1.93  25 1.98  22 2.00   9 2.92  11 2.92
                             9 2.92  11 2.93
  11  0.503  0.515  0.999-  24 1.90  27 1.90  20 1.94  23 1.94  25 1.94  22 2.00   1 2.82   9 2.89
                            10 2.92  10 2.93   9 2.94
  12  0.316  0.158  0.583-   4 1.88   8 1.90   6 1.91
  13  0.313  0.620  0.587-   4 1.88   8 1.89   7 1.90
  14  0.855  0.162  0.585-   4 1.87   7 1.90   6 1.90
  15  0.826  0.649  0.586-   8 1.95   6 1.97   7 1.97
  16  0.172  0.329  0.404-   7 1.99   6 1.99   8 2.00   1 2.37
  17  0.147  0.814  0.407-   6 1.92   7 1.92
  18  0.691  0.363  0.402-   7 1.94   8 1.95
  19  0.683  0.817  0.405-   6 1.93   8 1.95
  20  0.176  0.363  0.093-   9 1.92  11 1.94   5 2.02
  21  0.170  0.835  0.081-   9 1.91  10 1.91   5 1.99
  22  0.660  0.336  0.092-   9 1.99  11 2.00  10 2.00
  23  0.640  0.833  0.089-  10 1.93  11 1.94   5 2.03
  24  0.364  0.205  0.910-  11 1.90  10 1.92   5 2.10
  25  0.341  0.680  0.909-  11 1.94   9 1.96  10 1.98
  26  0.837  0.201  0.912-   9 1.90  10 1.91   5 2.03
  27  0.837  0.671  0.917-  11 1.90   9 1.91   5 2.08

  LATTYP: Found a triclinic cell.
 ALAT       =    10.0961149039
 B/A-ratio  =     0.5770940166
 C/A-ratio  =     1.5325604749
 COS(alpha) =     0.0120265449
 COS(beta)  =     0.3524902602
 COS(gamma) =     0.8647609972

  Lattice vectors:

 A1 = (   8.7502018414,   5.0336129766,   0.1680603723)
 A2 = (   2.9083326247,   5.0483537561,   0.0524411985)
 A3 = (   8.9996052454,  -5.0894440154,  11.5115379204)

Analysis of symmetry for initial positions (statically):
 Subroutine PRICEL returns:
 Original cell was already a primitive cell.

 Routine SETGRP: Setting up the symmetry group for a
 triclinic supercell.

 Subroutine GETGRP returns: Found  1 space group operations
 (whereof  1 operations were pure point group operations)
 out of a pool of  2 trial point group operations.

The static configuration has the point symmetry C_1 .

Analysis of symmetry for dynamics (positions and initial velocities):
 Subroutine PRICEL returns:
 Original cell was already a primitive cell.

[...]

The dynamic configuration has the point symmetry C_1 .

Analysis of structural, dynamic, and magnetic symmetry:
 Subroutine PRICEL returns:
 Original cell was already a primitive cell.

 Routine SETGRP: Setting up the symmetry group for a
 triclinic supercell.

 Subroutine GETGRP returns: Found  1 space group operations
 (whereof  1 operations were pure point group operations)
 out of a pool of  2 trial point group operations.

The overall configuration has the point symmetry C_1 .

 Subroutine INISYM returns: Found  1 space group operations
 (whereof  1 operations are pure point group operations),
 and found     1 'primitive' translations

                                     Primitive cell

  volume of cell :     334.5776

  direct lattice vectors                    reciprocal lattice vectors
    -2.908332625 -5.048353756 -0.052441198    -0.171493839 -0.099321775  0.003290980
    -2.933536592  5.063094535 -0.063177975    -0.170998554  0.098475266  0.003483795
    -0.224199437  0.011608700-11.332740771     0.001746858 -0.000089380 -0.088274558

  length of vectors
     5.826407502  5.851884711 11.334964205     0.198206414  0.197357596  0.088291886

  position of ions in fractional coordinates (direct lattice)
     0.494413802  0.509522205  0.247669889
     0.141464616  0.287487876  0.750429922
     0.814481244  0.151389554  0.249806596
     0.500310400  0.981779488  0.542950167
     0.001644787  0.022408656  0.006261592
     0.998847911  0.988181663  0.496590774
     0.000630638  0.487502212  0.498566865
     0.499282809  0.488531008  0.499360505
     0.004295904  0.509835753  0.000920198
     0.501936416  0.013654457  0.994947303
     0.503201696  0.514936684  0.999189580
     0.316144702  0.158351508  0.582943898
     0.312862060  0.619925796  0.586885274
     0.855087360  0.161883725  0.585294171
     0.826037777  0.648649534  0.585910438
     0.172350286  0.328860629  0.404120191
     0.146817194  0.814064121  0.407284319
     0.691000869  0.362940770  0.402289671
     0.683427969  0.816825802  0.404837706
     0.175675662  0.363367639  0.093257819
     0.170035298  0.834703113  0.080664065
     0.660363685  0.335506572  0.091997615
     0.639878721  0.832985872  0.089344582
     0.364116481  0.204650801  0.910441859
     0.340960413  0.680262751  0.909035788
     0.837482411  0.200658325  0.911929328
     0.837248887  0.671133486  0.917069885

  ion indices of the primitive-cell ions
   primitive index   ion index
                 1           1
                 2           2
                 3           3
                 4           4
                 5           5
                 6           6
                 7           7
                 8           8
                 9           9
                10          10
                11          11
                12          12
                13          13
                14          14
                15          15
                16          16
                17          17
                18          18
                19          19
                20          20
                21          21
                22          22
                23          23
                24          24
                25          25
                26          26
                27          27

 KPOINTS: pymatgen with grid density = 1046 / numb

Automatic generation of k-mesh.
 Grid dimensions read from file:
 generate k-points for:    4    4    2

 Generating k-lattice:

  Cartesian coordinates                     Fractional coordinates (reciprocal lattice)
[...]

 Conjugate gradient step on ions:
 trial-energy change:   -0.005475  1 .order   -0.005339   -0.009965   -0.000713
  (g-gl).g = 0.100E-01      g.g   = 0.108E-01  gl.gl    = 0.464E-01
 g(Force)  = 0.960E-02   g(Stress)= 0.116E-02 ortho     = 0.823E-03
 gamma     =   0.21606
 trial     =   0.91118
 opt step  =   0.98137  (harmonic =   0.98137) maximal distance =0.00753512
 next E    =  -239.683211   (d E  =  -0.00537)

--------------------------------------- Ionic step        9  -------------------------------------------

[...]

 eigenvalue-minimisations  :     0
 total energy-change (2. order) : 0.8749804E-03  (-0.1422401E-02)
 number of electron     201.0000045 magnetization      15.0000023
 augmentation part       68.0198272 magnetization      12.4375516

[...]

--------------------------------------- Iteration      9(   3)  ---------------------------------------

 eigenvalue-minimisations  :     0
 total energy-change (2. order) :-0.3197753E-03  (-0.6651516E-04)
 number of electron     201.0000045 magnetization      15.0000023
 augmentation part       68.0194435 magnetization      12.4379506

 Free energy of the ion-electron system (eV)
  alpha Z        PSCENC =       676.29377172
  Ewald energy   TEWEN  =    -10558.46791340
  -Hartree energ DENC   =     -9487.19890165
  -exchange      EXHF   =       612.76268366
  -V(xc)+E(xc)   XCENC  =       736.22295829
  PAW double counting   =     23130.56601488   -23697.95168097
  entropy T*S    EENTRO =        -0.00344181
  eigenvalues    EBANDS =     -3340.39516147
  atomic energy  EATOM  =     21688.48351686
  free energy    TOTEN  =      -239.68374343 eV

  energy without entropy =     -239.68030162  energy(sigma->0) =     -239.68202253
  exchange ACFDT corr.  =        -0.00699662  see jH, gK, PRB 81, 115126

  average scaling for gradient   0.9753

 average (electrostatic) potential at core
  the test charge radii are     0.9254  0.7079  0.9577  0.7215
  (the norm of the test charge is              1.0000)
       1 -39.5023       2 -38.7812       3 -39.5936       4 -54.1166       5 -54.1322
       6 -67.8547       7 -67.8659       8 -67.7218       9 -67.8537      10 -67.7190
      11 -67.8030      12 -66.1306      13 -66.1388      14 -66.2498      15 -66.9870
      16 -67.0485      17 -67.8859      18 -66.6778      19 -66.5432      20 -66.1917
      21 -66.9894      22 -67.0037      23 -66.0995      24 -66.0827      25 -67.0257
      26 -66.0575      27 -67.7464

 E-fermi :   1.1732     XC(G=0):  -7.9904     alpha+bet :-10.2118

 Fermi energy:         1.1732081248

[...]

 k-point    20 :       0.5000    0.5000    0.5000
  band No.  band energies     occupation
      1     -53.8361      1.00000
      2     -53.8219      1.00000
      3     -53.8109      1.00000
      4     -53.7807      1.00000
      5     -53.7799      1.00000
      6     -53.7702      1.00000
      7     -53.7564      1.00000
      8     -53.7365      1.00000
      9     -53.7263      1.00000
     10     -53.7231      1.00000
     11     -53.7159      1.00000
     12     -53.7001      1.00000
     13     -53.6830      1.00000
     14     -53.6449      1.00000
     15     -53.6199      1.00000
     16     -53.6087      1.00000
     17     -53.6039      1.00000
     18     -53.5845      1.00000
     19     -44.4153      1.00000
     20     -44.4041      1.00000
     21     -23.1069      1.00000
     22     -23.0987      1.00000
     23     -23.0670      1.00000
     24     -23.0349      1.00000
     25     -22.9951      1.00000
     26     -22.9834      1.00000
     27     -22.2932      1.00000
     28     -22.2754      1.00000
     29     -22.2683      1.00000
     30     -19.3459      1.00000
     31     -19.3132      1.00000
     32     -18.9487      1.00000
     33     -18.9235      1.00000
     34     -18.1584      1.00000
     35     -18.1524      1.00000
     36     -18.0877      1.00000
     37     -18.0564      1.00000
     38     -17.9539      1.00000
     39     -17.9162      1.00000
     40     -17.6992      1.00000
     41     -17.6235      1.00000
     42     -17.5167      1.00000
     43     -17.5013      1.00000
     44     -17.4329      1.00000
     45     -17.4085      1.00000
     46      -6.1401      1.00000
     47      -6.1293      1.00000
     48      -5.9362      1.00000
     49      -5.8945      1.00000
     50      -5.5809      1.00000
     51      -5.5603      1.00000
     52      -5.4053      1.00000
     53      -5.3833      1.00000
     54      -5.3192      1.00000
     55      -5.2857      1.00000
     56      -5.2475      1.00000
     57      -5.1880      1.00000
     58      -4.8952      1.00000
     59      -4.8839      1.00000
     60      -4.8212      1.00000
[...]
    178      21.4231      0.00000
    179      21.6678      0.00000
    180      21.8755      0.00000
    181      22.2172      0.00000
    182      22.3382      0.00000
    183      22.5176      0.00000
    184      22.6136      0.00000
    185      22.8161      0.00000
    186      22.8323      0.00000
    187      23.2862      0.00000
    188      23.4548      0.00000
    189      23.6347      0.00000
    190      24.1090      0.00000
    191      24.4105      0.00000
    192      24.5227      0.00000
 Fermi energy:         1.1732081248

 spin component 2

[...]

 k-point    20 :       0.5000    0.5000    0.5000
  band No.  band energies     occupation
      1     -49.3575      1.00000
      2     -49.3447      1.00000
      3     -49.3413      1.00000
      4     -49.2820      1.00000
      5     -49.2629      1.00000
      6     -49.2165      1.00000
      7     -49.1950      1.00000
      8     -49.1499      1.00000
      9     -49.1414      1.00000
     10     -49.1387      1.00000
     11     -49.0982      1.00000
     12     -49.0839      1.00000
     13     -49.0595      1.00000
     14     -49.0382      1.00000
     15     -49.0143      1.00000
     16     -48.9998      1.00000
     17     -48.9320      1.00000
     18     -48.8720      1.00000
     19     -44.3884      1.00000
     20     -44.3801      1.00000
     21     -23.1070      1.00000
     22     -23.0993      1.00000
     23     -23.0680      1.00000
     24     -23.0367      1.00000
     25     -22.9942      1.00000
     26     -22.9809      1.00000
     27     -22.2904      1.00000
     28     -22.2704      1.00000
     29     -22.2661      1.00000
     30     -20.0113      1.00000
     31     -19.9670      1.00000
     32     -19.3816      1.00000
     33     -19.3604      1.00000
     34     -18.8895      1.00000
     35     -18.8436      1.00000
     36     -18.6354      1.00000
     37     -18.3847      1.00000
     38     -18.3310      1.00000
     39     -18.1319      1.00000
     40     -17.9930      1.00000
     41     -17.8742      1.00000
     42     -17.8427      1.00000
     43     -17.7993      1.00000
     44     -17.6746      1.00000
     45     -17.6625      1.00000
     46      -5.1699      1.00000
     47      -5.1425      1.00000
     48      -4.7909      1.00000
     49      -4.7699      1.00000
     50      -4.7173      1.00000
     51      -4.7009      1.00000
     52      -4.5060      1.00000
     53      -4.3947      1.00000
     54      -4.3451      1.00000
     55      -4.3118      1.00000
     56      -4.2097      1.00000
     57      -4.1179      1.00000
     58      -4.1022      1.00000
     59      -4.0032      1.00000
     60      -3.8956      1.00000
[...]
    178      21.7292      0.00000
    179      21.9823      0.00000
    180      22.1799      0.00000
    181      22.6511      0.00000
    182      22.7116      0.00000
    183      22.9116      0.00000
    184      23.0477      0.00000
    185      23.2557      0.00000
    186      23.3115      0.00000
    187      23.7315      0.00000
    188      23.8822      0.00000
    189      23.9583      0.00000
    190      24.2000      0.00000
    191      24.3866      0.00000
    192      24.6746      0.00000

[...]

 soft charge-density along one line, spin component           2
         0         1         2         3         4         5         6         7         8         9
 total charge-density along one line

------------------------ aborting loop because EDIFF is reached ----------------------------------------

[...]

  FORCE on cell =-STRESS in cart. coord.  units (eV):
  Direction    XX          YY          ZZ          XY          YZ          ZX
  Alpha Z   676.29377   676.29377   676.29377
  Ewald    -487.99830  -423.36267 -9647.14782    64.95844   109.43013   367.01344
  Hartree  5609.84617  5660.69432 -1783.37730    57.20238    81.87246   285.10708
  E(xc)    -820.30942  -820.22095  -821.88913    -0.03043    -0.00060    -0.04289
  Local   -8069.56839 -8188.20357  8429.08826  -119.97026  -186.99793  -639.16105
  n-local    73.07222    71.86403    72.57061     0.56397     0.92473     3.03433
  augment   782.47405   782.88466   791.33265    -0.36605    -0.63767    -1.80834
  Kinetic  3147.69476  3151.39066  3198.09845    -2.44095    -4.98483   -14.78636
  Fock     -911.22317  -911.21527  -915.31824     0.02190     0.32922     0.72593
  Total       0.28169     0.12498    -0.34875    -0.06099    -0.06451     0.08216
  in kB       1.41508     0.62782    -1.75191    -0.30638    -0.32404     0.41270

 VOLUME and BASIS-vectors are now :
  energy-cutoff  :      520.00
  volume of cell :      318.94
      direct lattice vectors                 reciprocal lattice vectors
    -2.836176481 -4.927749787 -0.055616374    -0.175650717 -0.101874754  0.003411417
    -2.870946667  4.947956367 -0.062144570    -0.174935845  0.100644996  0.003516441
    -0.223761289  0.006661482-11.322331754     0.001822979 -0.000051989 -0.088357088

  length of vectors
     5.685921928  5.720880082 11.324544575     0.203084410  0.201852249  0.088375907

 FORCES acting on ions:
    Electron-Ion                     Ewald-Force                    Non-Local-Force
   -.246E+01 0.579E+01 0.143E+02   0.198E+01 -.496E+01 -.141E+02   0.426E+00 -.775E+00 -.172E+00
   -.257E+02 0.200E+02 0.351E+02   0.262E+02 -.201E+02 -.339E+02   -.476E+00 0.381E-01 -.112E+01
   -.307E+02 0.639E+01 0.110E+02   0.311E+02 -.629E+01 -.112E+02   -.319E+00 -.111E+00 0.266E+00
   -.948E+01 -.884E+01 0.933E+02   0.931E+01 0.878E+01 -.953E+02   0.174E+00 0.647E-01 0.191E+01
   -.219E+02 0.301E+02 -.194E+02   0.212E+02 -.293E+02 0.191E+02   0.530E+00 -.755E+00 0.275E+00
   -.442E+02 0.706E+02 0.114E+03   0.436E+02 -.691E+02 -.116E+03   0.508E+00 -.142E+01 0.204E+01
   0.309E+02 -.764E+02 0.130E+03   -.300E+02 0.751E+02 -.132E+03   -.945E+00 0.131E+01 0.216E+01
   0.290E+02 0.268E+02 0.171E+03   -.287E+02 -.266E+02 -.174E+03   -.278E+00 -.127E+00 0.234E+01
   0.295E+02 -.709E+02 -.125E+03   -.292E+02 0.691E+02 0.124E+03   -.376E+00 0.182E+01 -.113E+00
   -.471E+02 -.592E+01 -.217E+03   0.462E+02 0.595E+01 0.218E+03   0.990E+00 -.125E+00 -.921E+00
   0.568E+02 0.347E+02 -.175E+03   -.554E+02 -.336E+02 0.175E+03   -.138E+01 -.103E+01 -.835E+00
   -.169E+02 0.235E+03 0.446E+03   0.174E+02 -.246E+03 -.465E+03   -.370E+00 0.906E+01 0.170E+02
   0.187E+03 -.119E+03 0.464E+03   -.195E+03 0.124E+03 -.484E+03   0.711E+01 -.428E+01 0.179E+02
   -.206E+03 -.111E+03 0.465E+03   0.215E+03 0.116E+03 -.485E+03   -.768E+01 -.423E+01 0.178E+02
   0.234E+01 0.395E+01 0.565E+03   -.263E+01 -.418E+01 -.591E+03   0.270E+00 0.208E+00 0.231E+02
   0.679E+01 0.575E+01 -.410E+03   -.760E+01 -.595E+01 0.430E+03   0.671E+00 0.142E+00 -.178E+02
   0.176E+03 0.913E+02 -.379E+03   -.185E+03 -.964E+02 0.398E+03   0.790E+01 0.452E+01 -.167E+02
   -.149E+03 0.885E+02 -.329E+03   0.157E+03 -.926E+02 0.345E+03   -.703E+01 0.358E+01 -.138E+02
   0.805E+01 -.184E+03 -.314E+03   -.746E+01 0.194E+03 0.329E+03   -.517E+00 -.857E+01 -.130E+02
   -.151E+03 0.865E+02 0.358E+03   0.159E+03 -.919E+02 -.375E+03   -.682E+01 0.471E+01 0.155E+02
   0.409E+01 -.187E+03 0.371E+03   -.433E+01 0.198E+03 -.390E+03   0.233E+00 -.941E+01 0.165E+02
   -.192E+02 -.312E+01 0.401E+03   0.203E+02 0.329E+01 -.421E+03   -.924E+00 -.133E+00 0.174E+02
   0.144E+03 0.734E+02 0.321E+03   -.151E+03 -.772E+02 -.337E+03   0.653E+01 0.336E+01 0.134E+02
   -.146E+03 -.379E+02 -.476E+03   0.155E+03 0.415E+02 0.496E+03   -.790E+01 -.318E+01 -.173E+02
   0.550E+02 -.312E+02 -.564E+03   -.567E+02 0.325E+02 0.590E+03   0.152E+01 -.115E+01 -.221E+02
   -.344E+02 0.152E+03 -.481E+03   0.357E+02 -.162E+03 0.501E+03   -.119E+01 0.850E+01 -.174E+02
   0.174E+03 -.916E+02 -.482E+03   -.186E+03 0.971E+02 0.501E+03   0.991E+01 -.483E+01 -.162E+02
   -.807E+00 0.322E+01 -.108E+02   -.853E-13 0.284E-13 -.171E-12   0.568E+00 -.281E+01 0.103E+02

 POSITION                                       TOTAL-FORCE (eV/Angst)
     -2.92728      0.08446     -2.86265        -0.019681     -0.005808      0.004437
     -1.39832      0.72221     -8.52905        -0.017229     -0.040969     -0.013492
     -2.79763     -3.26379     -2.88306         0.007976     -0.017921      0.028163
     -4.36715      2.39112     -6.25815         0.004839      0.002798     -0.073080
     -0.11792      0.15028     -0.06769        -0.086392      0.027413      0.019282
     -5.78746     -0.01720     -5.76022        -0.122914      0.034085      0.036287
     -1.50143      2.40260     -5.68867        -0.053960     -0.146091      0.044172
     -2.92641     -0.04415     -5.72451         0.111423      0.085831      0.050394
     -1.46518      2.47879     -0.03975        -0.121058     -0.093418     -0.076682
     -1.69938     -2.39760    -11.27949         0.106006      0.006122     -0.014224
     -3.10632      0.08028    -11.37611         0.076933      0.102612     -0.053034
     -1.47572     -0.76468     -6.61092         0.022852      0.015735      0.034570
     -2.79201      1.53251     -6.67451         0.029648      0.005042      0.065249
     -3.02916     -3.41220     -6.67212        -0.006173     -0.013364     -0.007287
     -4.33867     -0.86203     -6.69889         0.019145      0.001580      0.052118
     -1.51308      0.78383     -4.63451        -0.034350     -0.041822     -0.067445
     -2.82263      3.32086     -4.62631         0.102591      0.056265     -0.004875
     -3.10150     -1.60689     -4.63269         0.018006     -0.013350     -0.033664
     -4.37966      0.65915     -4.68899         0.000237     -0.013489     -0.025849
     -1.56589      0.94393     -1.07017        -0.018678      0.040437      0.024416
     -2.88204      3.28549     -0.96644         0.018181     -0.012794      0.024864
     -2.85426     -1.59926     -1.07258         0.032920      0.013523      0.054693
     -4.21964      0.95932     -1.07283        -0.010959     -0.007438      0.045257
     -1.82219     -0.77657    -10.36953        -0.001800     -0.006476     -0.045068
     -3.11671      1.68603    -10.37462        -0.022955     -0.004294     -0.054730
     -3.16224     -3.12303    -10.40750        -0.007856      0.022387      0.019435
     -4.51240     -0.79886    -10.48084        -0.026752      0.003403     -0.033909
    total drift:                               -0.065135      0.028064      0.012907

  FREE ENERGIE OF THE ION-ELECTRON SYSTEM (eV)
  free  energy   TOTEN  =      -239.68374343 eV

  energy  without entropy=     -239.68030162  energy(sigma->0) =     -239.68202253

 d Force = 0.6750185E-04[ 0.697E-04, 0.653E-04]  d Energy = 0.4243284E-03-0.357E-03
 d Force =-0.2638174E+00[-0.264E+00,-0.263E+00]  d Ewald  =-0.9164710E+00 0.653E+00

 reached required accuracy - stopping structural energy minimisation

 total charge

[...]

 magnetization (x)

# of ion       s       p       d       tot
    1        0.001   0.000   0.000   0.001
    2        0.003   0.001   0.000   0.004
    3        0.001   0.000   0.000   0.002
    4        0.003   0.005   0.000   0.009
    5        0.005   0.004   0.000   0.009
    6        0.031   0.046   2.938   3.014
    7        0.031   0.046   2.929   3.005
    8        0.030   0.043   2.955   3.028
    9        0.030   0.047   2.894   2.971
   10        0.030   0.044   2.964   3.039
   11        0.030   0.045   2.931   3.006
   12        0.001  -0.036   0.000  -0.035
   13        0.001  -0.028   0.000  -0.027
   14        0.001  -0.019   0.000  -0.018
   15       -0.001  -0.083   0.000  -0.083
   16        0.000  -0.058   0.000  -0.057
   17       -0.010  -0.696   0.000  -0.706
   18       -0.005  -0.305   0.000  -0.310
   19       -0.004  -0.255   0.000  -0.258
   20        0.001  -0.021   0.000  -0.019
   21       -0.006  -0.440   0.000  -0.446
   22       -0.000  -0.063   0.000  -0.064
   23       -0.001  -0.129   0.000  -0.130
   24        0.000  -0.073   0.000  -0.073
   25       -0.001  -0.080   0.000  -0.081
   26        0.001  -0.015   0.000  -0.014
   27       -0.009  -0.620   0.000  -0.629
tot          0.164  -2.638  17.610  15.136