 vasp.6.4.2 20Jul23 (build Nov 27 2023 21:25:52) complex

 executed on             LinuxIFC date 2024.12.19  16:12:24

 INCAR:
   ALGO = All
   EDIFF = 0.00135
   ENCUT = 520
   HFSCREEN = 0.2
   IBRION = -1
   ICHARG = 1
   ISIF = 3
   ISMEAR = -5
   ISPIN = 2
   LHFCALC = True
   LMAXMIX = 4
   LORBIT = 11
   LREAL = Auto
   LWAVE = False
   LCHARG = True
   MAGMOM = 5*0.6 6*3.0 16*0.6
   NELM = 100
   NSW = 0
   PREC = Accurate
   PRECFOCK = Fast
   SIGMA = 0.05
   NEDOS = 10000

 POTCAR:    PAW_PBE Na_pv 19Sep2006
 POTCAR:    PAW_PBE Li_sv 10Sep2004
 POTCAR:    PAW_PBE Mn_pv 02Aug2007
 POTCAR:    PAW_PBE O 08Apr2002
|           W    W    AA    RRRRR   N    N  II  N    N   GGGG   !!!           |
|           W    W   A  A   R    R  NN   N  II  NN   N  G    G  !!!           |
|           W    W  A    A  R    R  N N  N  II  N N  N  G       !!!           |
|           W WW W  AAAAAA  RRRRR   N  N N  II  N  N N  G  GGG   !            |
|           WW  WW  A    A  R   R   N   NN  II  N   NN  G    G                |
|           W    W  A    A  R    R  N    N  II  N    N   GGGG   !!!           |
|     For optimal performance we recommend to set                             |
|       NCORE = 2 up to number-of-cores-per-socket                            |
|     This setting can greatly improve the performance of VASP for DFT.       |
|     The default, NCORE=1 might be grossly inefficient on modern             |
|     multi-core architectures or massively parallel machines. Do your        |
|     Unfortunately you need to use the default for GW and RPA                |
|     calculations (for HF NCORE is supported but not extensively tested      |
|     yet).                                                                   |

 POTCAR:    PAW_PBE Na_pv 19Sep2006
   VRHFIN =Na: p6s1

   TITEL  = PAW_PBE Na_pv 19Sep2006
   POMASS =   22.990; ZVAL   =    7.000    mass and valenz
   ENMAX  =  259.561; ENMIN  =  194.671 eV

 POTCAR:    PAW_PBE Li_sv 10Sep2004
   VRHFIN =Li: 1s2s2p

   TITEL  = PAW_PBE Li_sv 10Sep2004
   POMASS =    7.010; ZVAL   =    3.000    mass and valenz
   ENMAX  =  499.034; ENMIN  =  374.276 eV

 POTCAR:    PAW_PBE Mn_pv 02Aug2007
   VRHFIN =Mn: 3p4s3d

   TITEL  = PAW_PBE Mn_pv 02Aug2007
   POMASS =   54.938; ZVAL   =   13.000    mass and valenz
   ENMAX  =  269.864; ENMIN  =  202.398 eV

 POTCAR:    PAW_PBE O 08Apr2002
   VRHFIN =O: s2p4

   TITEL  = PAW_PBE O 08Apr2002
   POMASS =   16.000; ZVAL   =    6.000    mass and valenz
   ENMAX  =  400.000; ENMIN  =  300.000 eV

 Optimization of the real space projectors (new method)

 maximal supplied QI-value         = 17.01
 optimisation between [QCUT,QGAM] = [ 11.57, 23.30] = [ 37.45,152.03] Ry
 Optimized for a Real-space Cutoff    1.45 Angstroem

   l    n(q)    QCUT    max X(q) W(low)/X(q) W(high)/X(q)  e(spline)
   1     10    11.565     4.940    0.87E-04    0.13E-03    0.13E-06
   1     10    11.565     6.253    0.13E-03    0.19E-03    0.20E-06
   0     10    11.565    37.438    0.53E-04    0.73E-05    0.79E-07
   0     10    11.565     9.606    0.27E-04    0.60E-05    0.56E-07
 Optimization of the real space projectors (new method)

[...]

   l    n(q)    QCUT    max X(q) W(low)/X(q) W(high)/X(q)  e(spline)
   1     10    11.539     3.658    0.56E-04    0.12E-03    0.13E-06
   1     10    11.539     5.612    0.11E-03    0.23E-03    0.24E-06
   2      9    11.539    55.373    0.45E-04    0.92E-04    0.22E-06
   2      9    11.539    50.863    0.47E-04    0.95E-04    0.22E-06
   0     10    11.539    79.536    0.46E-04    0.27E-04    0.11E-06
   0     10    11.539    38.668    0.38E-04    0.25E-04    0.10E-06
 Optimization of the real space projectors (new method)

 maximal supplied QI-value         = 24.76
 optimisation between [QCUT,QGAM] = [ 11.64, 23.27] = [ 37.91,151.63] Ry
 Optimized for a Real-space Cutoff    1.14 Angstroem

   l    n(q)    QCUT    max X(q) W(low)/X(q) W(high)/X(q)  e(spline)
   0      8    11.635    20.381    0.10E-03    0.33E-03    0.24E-06
   0      8    11.635    15.268    0.11E-03    0.35E-03    0.26E-06
   1      7    11.635     5.964    0.24E-03    0.31E-03    0.30E-06
   1      7    11.635     5.382    0.22E-03    0.25E-03    0.26E-06
  PAW_PBE Na_pv 19Sep2006               :
  PAW_PBE Li_sv 10Sep2004               :
  PAW_PBE Mn_pv 02Aug2007               :
  PAW_PBE O 08Apr2002                   :

 POSCAR: Na6 Li2 Mn6 O16
  positions in direct lattice
  velocities in cartesian coordinates
 exchange correlation table for  LEXCH =        8
   RHO(1)=    0.500       N(1)  =     2000
   RHO(2)=  100.500       N(2)  =     4000

 ion  position               nearest neighbor table
   1  0.329  0.688  0.248-  17 2.31  23 2.35  20 2.36
   2  0.160  0.302  0.752-
   3  0.842  0.148  0.245-  20 2.35  23 2.37
   4  0.501  0.980  0.550-  12 1.82  14 1.82  13 1.82   8 2.84   6 2.84
   5  0.007  0.026  0.016-  21 1.91  20 1.93  23 1.96  26 2.06  24 2.11  27 2.22   9 2.76  11 2.79
                            10 2.85  10 2.85
   6  0.996  0.992  0.494-  14 1.85  12 1.86  17 1.91  19 1.91  15 1.92  16 1.96   7 2.83   4 2.84
                             8 2.87   8 2.88   7 2.88
   7  1.000  0.489  0.501-  13 1.83  14 1.83  17 1.91  15 1.91  18 1.92  16 1.93   8 2.81   6 2.83
                             8 2.87   6 2.88
   8  0.496  0.493  0.494-  13 1.84  12 1.85  19 1.90  15 1.92  18 1.93  16 1.95   7 2.81   4 2.84
                             6 2.87   7 2.87   6 2.88
   9  0.002  0.506  0.002-  20 1.86  26 1.87  21 1.87  27 1.90  25 1.91  22 1.93   5 2.76  11 2.81
                            10 2.87  10 2.87  11 2.88
  10  0.500  0.009  0.997-  21 1.87  24 1.88  23 1.88  26 1.90  22 1.94  25 1.94   5 2.85   5 2.85
                            11 2.86  11 2.86   9 2.87   9 2.87
  11  0.496  0.507  0.008-  20 1.86  24 1.87  23 1.88  25 1.91  27 1.91  22 1.93   5 2.79   9 2.81
                            10 2.86  10 2.86   9 2.88
  12  0.320  0.166  0.575-   4 1.82   8 1.85   6 1.86
  13  0.313  0.621  0.585-   4 1.82   7 1.83   8 1.84
  14  0.859  0.170  0.584-   4 1.82   7 1.83   6 1.85
  15  0.825  0.658  0.581-   7 1.91   8 1.92   6 1.92
  16  0.165  0.329  0.403-   7 1.93   8 1.95   6 1.96
  17  0.129  0.800  0.402-   7 1.91   6 1.91   1 2.31
  18  0.695  0.365  0.399-   7 1.92   8 1.93
  19  0.674  0.817  0.404-   8 1.90   6 1.91
  20  0.174  0.368  0.095-   9 1.86  11 1.86   5 1.93   3 2.35   1 2.36
  21  0.171  0.834  0.082-   9 1.87  10 1.87   5 1.91
  22  0.665  0.334  0.091-  11 1.93   9 1.93  10 1.94
  23  0.644  0.836  0.089-  11 1.88  10 1.88   5 1.96   1 2.35   3 2.37
  24  0.367  0.203  0.913-  11 1.87  10 1.88   5 2.11
  25  0.336  0.668  0.914-  11 1.91   9 1.91  10 1.94
  26  0.834  0.194  0.912-   9 1.87  10 1.90   5 2.06
  27  0.820  0.647  0.913-   9 1.90  11 1.91   5 2.22

  LATTYP: Found a triclinic cell.
 ALAT       =     5.6803382849
 B/A-ratio  =     1.0051121386
 C/A-ratio  =     1.9834885873
 COS(alpha) =     0.0004891562
 COS(beta)  =     0.0160394751
 COS(gamma) =     0.4911152612

  Lattice vectors:

 A1 = (   2.8581404516,   4.9086705115,   0.0472228776)
 A2 = (  -2.8869424724,   4.9257024680,   0.0019101298)
 A3 = (   0.0844931315,   0.0515403298,  11.2664514492)

Analysis of symmetry for initial positions (statically):
 Subroutine PRICEL returns:
 Original cell was already a primitive cell.

 Routine SETGRP: Setting up the symmetry group for a
 triclinic supercell.

 Subroutine GETGRP returns: Found  1 space group operations
 (whereof  1 operations were pure point group operations)
 out of a pool of  2 trial point group operations.

The static configuration has the point symmetry C_1 .

Analysis of symmetry for dynamics (positions and initial velocities):
 Subroutine PRICEL returns:
 Original cell was already a primitive cell.

[...]

The dynamic configuration has the point symmetry C_1 .

Analysis of structural, dynamic, and magnetic symmetry:
 Subroutine PRICEL returns:
 Original cell was already a primitive cell.

 Routine SETGRP: Setting up the symmetry group for a
 triclinic supercell.

 Subroutine GETGRP returns: Found  1 space group operations
 (whereof  1 operations were pure point group operations)
 out of a pool of  2 trial point group operations.

The overall configuration has the point symmetry C_1 .

 Subroutine INISYM returns: Found  1 space group operations
 (whereof  1 operations are pure point group operations),
 and found     1 'primitive' translations

                                     Primitive cell

  volume of cell :     318.2443

  direct lattice vectors                    reciprocal lattice vectors
    -2.858140452 -4.908670511 -0.047222878    -0.174378888 -0.102203739  0.001775309
    -2.886942472  4.925702468  0.001910130    -0.173768586  0.101171048  0.000840359
    -0.084493131 -0.051540330-11.266451449     0.000701441  0.000445536 -0.088766391

  length of vectors
     5.680338285  5.709376962 11.266886160     0.202130534  0.201076624  0.088770280

  position of ions in fractional coordinates (direct lattice)
     0.329017816  0.688046568  0.248320408
     0.160464760  0.302210564  0.752082315
     0.841631736  0.148428039  0.244720142
     0.500729953  0.980100829  0.550444495
     0.007189105  0.025501085  0.016095940
     0.996211672  0.991647677  0.494410673
     0.999538273  0.489172186  0.501406668
     0.496462501  0.492840203  0.494016591
     0.002305105  0.505895871  0.002341554
     0.499806770  0.008682497  0.996711319
     0.496431783  0.507095035  0.008077487
     0.320065064  0.166332156  0.574559634
     0.312788808  0.621222458  0.585084997
     0.859352436  0.170184278  0.583782359
     0.824799358  0.658071008  0.581455869
     0.164793407  0.329277553  0.403326774
     0.128875171  0.799534690  0.401817411
     0.694946839  0.364916401  0.398965066
     0.673750430  0.817310763  0.403602403
     0.173558712  0.367767947  0.095316785
     0.171452036  0.834274827  0.082035178
     0.664754567  0.333873001  0.090952134
     0.644202865  0.836321771  0.089360948
     0.367254793  0.202714126  0.912658544
     0.336162335  0.667637447  0.913720723
     0.833930541  0.193633252  0.911998079
     0.819523163  0.647307768  0.912735505

  ion indices of the primitive-cell ions
   primitive index   ion index
                 1           1
                 2           2
                 3           3
                 4           4
                 5           5
                 6           6
                 7           7
                 8           8
                 9           9
                10          10
                11          11
                12          12
                13          13
                14          14
                15          15
                16          16
                17          17
                18          18
                19          19
                20          20
                21          21
                22          22
                23          23
                24          24
                25          25
                26          26
                27          27

 KPOINTS: pymatgen with grid density = 1046 / numb

Automatic generation of k-mesh.
[...]
    245      33.8710      0.00000
    246      34.1068      0.00000
    247      34.2859      0.00000
    248      34.5053      0.00000
    249      34.6296      0.00000
    250      34.6723      0.00000
    251      34.7993      0.00000
    252      34.9051      0.00000
    253      34.9971      0.00000
    254      35.0885      0.00000
    255      35.2107      0.00000
    256      35.4695      0.00000

[...]

 k-point    20 :       0.5000    0.5000    0.5000
  band No.  band energies     occupation
      1     -53.7833      1.00000
      2     -53.7241      1.00000
      3     -53.6599      1.00000
      4     -53.6515      1.00000
      5     -53.6351      1.00000
      6     -53.6328      1.00000
      7     -53.5864      1.00000
      8     -53.5767      1.00000
      9     -53.5688      1.00000
     10     -53.5459      1.00000
     11     -53.5166      1.00000
     12     -53.4813      1.00000
     13     -53.4668      1.00000
     14     -53.4524      1.00000
     15     -53.4346      1.00000
     16     -53.4255      1.00000
     17     -53.3572      1.00000
     18     -53.2881      1.00000
     19     -44.6122      1.00000
     20     -44.5243      1.00000
     21     -23.2891      1.00000
     22     -23.1942      1.00000
     23     -23.1815      1.00000
     24     -22.9623      1.00000
     25     -22.9243      1.00000
     26     -22.9215      1.00000
     27     -22.3206      1.00000
     28     -22.3049      1.00000
     29     -22.3013      1.00000
     30     -19.8668      1.00000
     31     -19.7559      1.00000
     32     -19.3885      1.00000
     33     -19.1602      1.00000
     34     -18.9419      1.00000
     35     -18.6380      1.00000
     36     -18.5658      1.00000
     37     -18.4094      1.00000
     38     -18.1959      1.00000
     39     -18.1713      1.00000
     40     -18.1086      1.00000
     41     -18.0674      1.00000
     42     -18.0381      1.00000
     43     -17.9728      1.00000
     44     -17.8811      1.00000
     45     -17.7741      1.00000
     46      -6.3427      1.00000
     47      -6.1649      1.00000
     48      -6.0397      1.00000
     49      -5.8340      1.00000
     50      -5.6794      1.00000
     51      -5.6407      1.00000
     52      -5.4826      1.00000
     53      -5.4534      1.00000
     54      -5.4024      1.00000
     55      -5.3368      1.00000
     56      -5.3172      1.00000
     57      -5.2579      1.00000
     58      -5.1545      1.00000
     59      -4.9839      1.00000
     60      -4.8894      1.00000
[...]
    242      33.5808      0.00000
    243      33.7073      0.00000
    244      34.0224      0.00000
    245      34.0662      0.00000
    246      34.1494      0.00000
    247      34.3363      0.00000
    248      34.5044      0.00000
    249      34.6569      0.00000
    250      34.7075      0.00000
    251      34.8348      0.00000
    252      34.9686      0.00000
    253      35.1634      0.00000
    254      35.2032      0.00000
    255      35.3902      0.00000
    256      35.4523      0.00000
 Fermi energy:         1.0330466724

 spin component 2

[...]

 k-point    20 :       0.5000    0.5000    0.5000
  band No.  band energies     occupation
      1     -49.3524      1.00000
      2     -49.2764      1.00000
      3     -49.2471      1.00000
      4     -49.1605      1.00000
      5     -49.1593      1.00000
      6     -49.1174      1.00000
      7     -49.1110      1.00000
      8     -49.1019      1.00000
      9     -49.0351      1.00000
     10     -49.0209      1.00000
     11     -49.0170      1.00000
     12     -49.0152      1.00000
     13     -49.0079      1.00000
     14     -48.9394      1.00000
     15     -48.9127      1.00000
     16     -48.8866      1.00000
     17     -48.7974      1.00000
     18     -48.7755      1.00000
     19     -44.6043      1.00000
     20     -44.5140      1.00000
     21     -23.2886      1.00000
     22     -23.1954      1.00000
     23     -23.1813      1.00000
     24     -22.9608      1.00000
     25     -22.9204      1.00000
     26     -22.9156      1.00000
     27     -22.3163      1.00000
     28     -22.3001      1.00000
     29     -22.2977      1.00000
     30     -19.3616      1.00000
     31     -19.1619      1.00000
     32     -19.0093      1.00000
     33     -18.8047      1.00000
     34     -18.1791      1.00000
     35     -18.0624      1.00000
     36     -18.0359      1.00000
     37     -17.9544      1.00000
     38     -17.9290      1.00000
     39     -17.8470      1.00000
     40     -17.6731      1.00000
     41     -17.5593      1.00000
     42     -17.4634      1.00000
     43     -17.4222      1.00000
     44     -17.3337      1.00000
     45     -17.2295      1.00000
     46      -4.7254      1.00000
     47      -4.7040      1.00000
     48      -4.4710      1.00000
     49      -4.3942      1.00000
     50      -4.3493      1.00000
     51      -4.3159      1.00000
     52      -4.2366      1.00000
     53      -4.0961      1.00000
     54      -4.0296      1.00000
     55      -3.8957      1.00000
     56      -3.8622      1.00000
     57      -3.7653      1.00000
     58      -3.7460      1.00000
     59      -3.6136      1.00000
     60      -3.5888      1.00000
[...]
    242      33.8726      0.00000
    243      34.0268      0.00000
    244      34.2962      0.00000
    245      34.3604      0.00000
    246      34.6153      0.00000
    247      34.6757      0.00000
    248      34.8184      0.00000
    249      35.0370      0.00000
    250      35.1581      0.00000
    251      35.2179      0.00000
    252      35.4943      0.00000
    253      35.5251      0.00000
    254      35.5790      0.00000
    255      35.8134      0.00000
    256      35.9493      0.00000

 soft charge-density along one line, spin component           1
         0         1         2         3         4         5         6         7         8         9
 total charge-density along one line

 soft charge-density along one line, spin component           2
         0         1         2         3         4         5         6         7         8         9
 total charge-density along one line

------------------------ aborting loop because EDIFF is reached ----------------------------------------

 total charge

# of ion       s       p       d       tot
    1        0.048   5.997   0.000   6.045
    2        0.036   5.985   0.000   6.021
    3        0.043   5.991   0.000   6.034
    4        2.035   0.090   0.000   2.124
    5        2.028   0.078   0.000   2.106
    6        0.381   6.500   4.817  11.698
    7        0.391   6.520   4.856  11.767
    8        0.382   6.501   4.825  11.708
    9        0.390   6.520   4.851  11.761
   10        0.377   6.496   4.803  11.677
   11        0.384   6.510   4.832  11.725
   12        1.579   3.482   0.000   5.061
   13        1.580   3.488   0.000   5.068
   14        1.580   3.483   0.000   5.063
   15        1.581   3.454   0.000   5.035
   16        1.572   3.482   0.000   5.054
   17        1.590   3.362   0.000   4.952
   18        1.596   3.310   0.000   4.907
   19        1.580   3.403   0.000   4.983
   20        1.572   3.506   0.000   5.078
   21        1.579   3.462   0.000   5.041
   22        1.574   3.471   0.000   5.046
   23        1.573   3.485   0.000   5.058
   24        1.583   3.430   0.000   5.013
   25        1.578   3.463   0.000   5.041
   26        1.582   3.432   0.000   5.014
   27        1.602   3.293   0.000   4.895
tot         31.796 112.194  28.984 172.974

 magnetization (x)

[...]

  FORCE on cell =-STRESS in cart. coord.  units (eV):
  Direction    XX          YY          ZZ          XY          YZ          ZX
  Alpha Z   677.77156   677.77156   677.77156
  Ewald    -411.48608  -601.93917 -9593.43244    53.64102   176.98149   136.16214
  Hartree  5661.44252  5520.01686 -1732.23857    46.65355   136.11233   107.02595
  E(xc)    -820.27721  -820.14970  -821.74204     0.05856     0.03647    -0.01395
  Local   -8189.79825 -7868.93512  8317.59595  -103.38881  -311.85451  -239.83144
  n-local    74.14408    72.31876    72.15799    -0.89914    -0.28583     0.83316
  augment   780.56170   782.26252   792.02080     0.26659    -0.31833    -0.35323
  Kinetic  3138.98788  3152.41671  3204.21349     4.97746    -0.84634    -4.34270
  Fock     -912.10901  -912.34264  -916.77852    -0.01593     0.13001     0.06826
  Total      -0.76281     1.41979    -0.43178     1.29330    -0.04471    -0.45181
  in kB      -3.84032     7.14782    -2.17375     6.51105    -0.22509    -2.27462

 VOLUME and BASIS-vectors are now :
  energy-cutoff  :      520.00
  volume of cell :      318.24
      direct lattice vectors                 reciprocal lattice vectors
    -2.858140452 -4.908670511 -0.047222878    -0.174378888 -0.102203739  0.001775309
    -2.886942472  4.925702468  0.001910130    -0.173768586  0.101171048  0.000840359
    -0.084493131 -0.051540330-11.266451449     0.000701441  0.000445536 -0.088766391

  length of vectors
     5.680338285  5.709376962 11.266886160     0.202130534  0.201076624  0.088770280

 FORCES acting on ions:
    Electron-Ion                     Ewald-Force                    Non-Local-Force
   0.344E+02 -.287E+02 0.630E+02   -.335E+02 0.290E+02 -.604E+02   -.758E+00 -.255E+00 -.169E+01
   -.284E+02 0.269E+02 0.200E+02   0.286E+02 -.269E+02 -.205E+02   -.170E+00 -.383E-01 -.321E+00
   -.272E+02 0.157E+02 0.306E+02   0.265E+02 -.166E+02 -.287E+02   0.529E+00 0.801E+00 -.103E+01
   0.633E+00 -.151E+02 0.116E+03   -.495E+00 0.153E+02 -.118E+03   -.129E-01 -.130E+00 0.159E+01
   -.196E+02 0.211E+02 -.302E+02   0.190E+02 -.211E+02 0.291E+02   0.410E+00 0.496E-02 0.132E+01
   -.276E+02 0.569E+02 0.136E+03   0.267E+02 -.571E+02 -.138E+03   0.411E+00 -.762E-01 0.180E+01
   -.103E+02 -.902E+02 0.240E+03   0.947E+01 0.891E+02 -.242E+03   0.489E+00 0.112E+01 0.199E+01
   0.273E+02 0.686E+02 0.124E+03   -.262E+02 -.676E+02 -.127E+03   -.449E+00 -.910E+00 0.218E+01
   0.313E+00 -.856E+02 -.206E+03   -.434E+00 0.843E+02 0.207E+03   0.182E+00 0.109E+01 0.208E+00
   -.761E+01 -.207E+02 -.296E+03   0.729E+01 0.212E+02 0.297E+03   0.689E-02 -.370E+00 -.591E-01
   0.511E+02 0.653E+02 -.109E+03   -.496E+02 -.647E+02 0.110E+03   -.114E+01 -.788E+00 -.150E+00
   -.537E+01 0.231E+03 0.438E+03   0.532E+01 -.241E+03 -.457E+03   0.507E-01 0.851E+01 0.162E+02
   0.189E+03 -.109E+03 0.491E+03   -.197E+03 0.114E+03 -.513E+03   0.703E+01 -.363E+01 0.185E+02
   -.200E+03 -.108E+03 0.480E+03   0.208E+03 0.112E+03 -.501E+03   -.704E+01 -.367E+01 0.179E+02
   -.840E+00 -.112E+02 0.574E+03   0.105E+01 0.124E+02 -.601E+03   -.174E+00 -.102E+01 0.230E+02
   -.263E+00 0.539E+02 -.387E+03   0.911E-01 -.554E+02 0.408E+03   0.145E+00 0.130E+01 -.181E+02
   0.170E+03 0.413E+02 -.323E+03   -.179E+03 -.447E+02 0.340E+03   0.743E+01 0.289E+01 -.146E+02
   -.164E+03 0.472E+02 -.336E+03   0.173E+03 -.508E+02 0.354E+03   -.731E+01 0.313E+01 -.148E+02
   0.543E+01 -.152E+03 -.292E+03   -.550E+01 0.161E+03 0.307E+03   0.750E-01 -.776E+01 -.129E+02
   -.148E+03 0.126E+03 0.321E+03   0.157E+03 -.132E+03 -.338E+03   -.708E+01 0.510E+01 0.148E+02
   0.149E+01 -.231E+03 0.306E+03   -.154E+01 0.242E+03 -.323E+03   0.974E-01 -.998E+01 0.154E+02
   -.110E+02 -.355E+02 0.411E+03   0.118E+02 0.360E+02 -.433E+03   -.608E+00 -.518E+00 0.195E+02
   0.153E+03 0.125E+03 0.285E+03   -.161E+03 -.130E+03 -.300E+03   0.695E+01 0.478E+01 0.133E+02
   -.151E+03 -.371E+02 -.489E+03   0.159E+03 0.407E+02 0.508E+03   -.692E+01 -.303E+01 -.170E+02
   0.493E+02 -.200E+02 -.577E+03   -.506E+02 0.198E+02 0.602E+03   0.120E+01 0.168E+00 -.215E+02
   -.448E+02 0.160E+03 -.491E+03   0.464E+02 -.169E+03 0.509E+03   -.157E+01 0.804E+01 -.164E+02
   0.164E+03 -.938E+02 -.512E+03   -.173E+03 0.998E+02 0.532E+03   0.818E+01 -.526E+01 -.170E+02
   -.155E-01 0.107E+00 -.109E+02   -.171E-12 0.000E+00 0.909E-12   -.380E-01 -.511E+00 0.119E+02

 POSITION                                       TOTAL-FORCE (eV/Angst)
     -2.94771      1.76127     -2.81191         0.115722      0.040696      0.741470
     -1.39464      0.66217     -8.48030         0.016734     -0.037181     -0.871383
     -2.85468     -3.41279     -2.79659        -0.148794     -0.047694      0.729349
     -4.30716      2.34140     -6.22333         0.119415      0.114063     -0.464429
     -0.09553      0.08949     -0.18163        -0.136466      0.050877      0.233320
     -5.75192     -0.03100     -5.61540        -0.605189     -0.203763     -0.749568
     -4.31140     -2.52273     -5.69534        -0.358782     -0.199771     -0.608403
     -2.88350     -0.03485     -5.58832         0.707436      0.247408     -1.061574
     -1.46728      2.48046     -0.02552         0.033660     -0.337759      0.553379
     -1.53780     -2.46199    -11.25299        -0.280662      0.174426      0.871796
     -2.88351      0.06056     -0.11348         0.494284     -0.010853      0.819609
     -1.44353     -0.78140     -6.48804        -0.007352      0.024089     -0.245932
     -2.73686      1.49442     -6.60542        -0.003398     -0.006042     -0.441371
     -2.99679     -3.41009     -6.61741         0.064577      0.101037     -0.401393
     -4.30633     -0.83717     -6.58864         0.006853      0.032181     -0.585495
     -1.45569      0.79222     -4.55121        -0.009524     -0.043313     -0.210559
     -2.71050      3.28495     -4.53161         0.006042     -0.044921      0.003482
     -3.07346     -1.63436     -4.52704         0.005627     -0.015644      0.124361
     -4.31930      0.69781     -4.57742         0.016396     -0.075559      0.039052
     -1.56583      0.95466     -1.08138         0.045215     -0.059506      0.322988
     -2.90547      3.26356     -0.93075         0.062924      0.033703      0.490810
     -2.87152     -1.62319     -1.05546         0.100106     -0.051895      0.371980
     -4.26319      0.95269     -1.03560        -0.058646     -0.053076      0.555242
     -1.71200     -0.85126    -10.29938        -0.149701      0.123964     -0.160798
     -2.96543      1.59138    -10.30899        -0.022962      0.057431     -0.150834
     -3.01956     -3.18672    -10.31399        -0.132027      0.213054     -0.106151
     -4.28817     -0.88137    -10.32075         0.118514     -0.025953      0.201050
    total drift:                                0.108818     -0.497566      0.924771

  FREE ENERGIE OF THE ION-ELECTRON SYSTEM (eV)
  free  energy   TOTEN  =      -239.45723055 eV

  energy  without entropy=     -239.45723055  energy(sigma->0) =     -239.45723055

|           W    W    AA    RRRRR   N    N  II  N    N   GGGG   !!!           |
|           W    W   A  A   R    R  NN   N  II  NN   N  G    G  !!!           |
|           W    W  A    A  R    R  N N  N  II  N N  N  G       !!!           |
|           W WW W  AAAAAA  RRRRR   N  N N  II  N  N N  G  GGG   !            |
|           WW  WW  A    A  R   R   N   NN  II  N   NN  G    G                |
|           W    W  A    A  R    R  N    N  II  N    N   GGGG   !!!           |
|     Tetrahedron method does not include variations of the Fermi             |
|     occupations, so forces and stress will be inaccurate. We suggest        |
|     using a different smearing scheme ISMEAR = 1 or 2 for metals in         |
|     relaxations.                                                            |

 total charge

[...]

 magnetization (x)

# of ion       s       p       d       tot
    1        0.002   0.000   0.000   0.002
    2        0.002   0.001   0.000   0.002
    3        0.000  -0.001   0.000  -0.000
    4        0.001   0.002   0.000   0.004
    5        0.001   0.000   0.000   0.001
    6        0.025   0.033   2.901   2.959
    7        0.023   0.030   2.844   2.897
    8        0.024   0.030   2.891   2.946
    9        0.024   0.032   2.855   2.911
   10        0.026   0.036   2.921   2.983
   11        0.023   0.031   2.863   2.917
   12        0.002   0.084   0.000   0.086
   13        0.001   0.014   0.000   0.014
   14        0.002   0.077   0.000   0.079
   15       -0.001  -0.072   0.000  -0.073
   16       -0.000  -0.056   0.000  -0.056
   17        0.009   0.443   0.000   0.452
   18        0.012   0.595   0.000   0.607
   19        0.007   0.299   0.000   0.306
   20       -0.000  -0.008   0.000  -0.008
   21        0.004   0.132   0.000   0.136
   22       -0.000  -0.061   0.000  -0.061
   23        0.003   0.102   0.000   0.105
   24        0.005   0.224   0.000   0.230
   25       -0.000  -0.071   0.000  -0.072
   26        0.006   0.226   0.000   0.232
   27        0.012   0.631   0.000   0.643
tot          0.211   2.754  17.275  20.240

 BZINTS: Fermi energy:    1.068354;  201.000000 electrons
         Band energy:-0.333157E+04;  BLOECHL correction:   -0.023617