 vasp.6.4.2 20Jul23 (build Nov 27 2023 21:25:52) complex

 executed on             LinuxIFC date 2024.12.10  17:05:11

 INCAR:
   ALGO = All
   EDIFF = 0.00135
   ENCUT = 520
   HFSCREEN = 0.2
   IBRION = 2
   ICHARG = 1
   ISIF = 3
   ISMEAR = 0
   ISPIN = 2
   LHFCALC = True
   LMAXMIX = 4
   LORBIT = 11
   LREAL = Auto
   LWAVE = False
   MAGMOM = 3*0.6 8*3.0 16*0.6
   NELM = 100
   NSW = 99
   PREC = Accurate
   PRECFOCK = Fast
   SIGMA = 0.05
   SYMPREC = 1e-09

 POTCAR:    PAW_PBE Na_pv 19Sep2006
 POTCAR:    PAW_PBE Mn_pv 02Aug2007
 POTCAR:    PAW_PBE O 08Apr2002
|           W    W    AA    RRRRR   N    N  II  N    N   GGGG   !!!           |
|           W    W   A  A   R    R  NN   N  II  NN   N  G    G  !!!           |
|           W    W  A    A  R    R  N N  N  II  N N  N  G       !!!           |
|           W WW W  AAAAAA  RRRRR   N  N N  II  N  N N  G  GGG   !            |
|           WW  WW  A    A  R   R   N   NN  II  N   NN  G    G                |
|           W    W  A    A  R    R  N    N  II  N    N   GGGG   !!!           |
|     For optimal performance we recommend to set                             |
|       NCORE = 2 up to number-of-cores-per-socket                            |
|     This setting can greatly improve the performance of VASP for DFT.       |
|     The default, NCORE=1 might be grossly inefficient on modern             |
|     multi-core architectures or massively parallel machines. Do your        |
|     Unfortunately you need to use the default for GW and RPA                |
|     calculations (for HF NCORE is supported but not extensively tested      |
|     yet).                                                                   |

 POTCAR:    PAW_PBE Na_pv 19Sep2006
   VRHFIN =Na: p6s1

   TITEL  = PAW_PBE Na_pv 19Sep2006
   POMASS =   22.990; ZVAL   =    7.000    mass and valenz
   ENMAX  =  259.561; ENMIN  =  194.671 eV

 POTCAR:    PAW_PBE Mn_pv 02Aug2007
   VRHFIN =Mn: 3p4s3d

   TITEL  = PAW_PBE Mn_pv 02Aug2007
   POMASS =   54.938; ZVAL   =   13.000    mass and valenz
   ENMAX  =  269.864; ENMIN  =  202.398 eV

 POTCAR:    PAW_PBE O 08Apr2002
   VRHFIN =O: s2p4

   TITEL  = PAW_PBE O 08Apr2002
   POMASS =   16.000; ZVAL   =    6.000    mass and valenz
   ENMAX  =  400.000; ENMIN  =  300.000 eV

 Optimization of the real space projectors (new method)

 maximal supplied QI-value         = 17.01
 optimisation between [QCUT,QGAM] = [ 11.57, 23.30] = [ 37.45,152.03] Ry
 Optimized for a Real-space Cutoff    1.45 Angstroem

   l    n(q)    QCUT    max X(q) W(low)/X(q) W(high)/X(q)  e(spline)
   1     10    11.565     4.940    0.87E-04    0.13E-03    0.13E-06
   1     10    11.565     6.253    0.13E-03    0.19E-03    0.20E-06
   0     10    11.565    37.438    0.53E-04    0.73E-05    0.79E-07
   0     10    11.565     9.606    0.27E-04    0.60E-05    0.56E-07
 Optimization of the real space projectors (new method)

[...]

   l    n(q)    QCUT    max X(q) W(low)/X(q) W(high)/X(q)  e(spline)
   1     10    11.539     3.658    0.56E-04    0.12E-03    0.13E-06
   1     10    11.539     5.612    0.11E-03    0.23E-03    0.24E-06
   2      9    11.539    55.373    0.45E-04    0.92E-04    0.22E-06
   2      9    11.539    50.863    0.47E-04    0.95E-04    0.22E-06
   0     10    11.539    79.536    0.46E-04    0.27E-04    0.11E-06
   0     10    11.539    38.668    0.38E-04    0.25E-04    0.10E-06
 Optimization of the real space projectors (new method)

 maximal supplied QI-value         = 24.76
 optimisation between [QCUT,QGAM] = [ 11.64, 23.27] = [ 37.91,151.63] Ry
 Optimized for a Real-space Cutoff    1.14 Angstroem

   l    n(q)    QCUT    max X(q) W(low)/X(q) W(high)/X(q)  e(spline)
   0      8    11.635    20.381    0.10E-03    0.33E-03    0.24E-06
   0      8    11.635    15.268    0.11E-03    0.35E-03    0.26E-06
   1      7    11.635     5.964    0.24E-03    0.31E-03    0.30E-06
   1      7    11.635     5.382    0.22E-03    0.25E-03    0.26E-06
  PAW_PBE Na_pv 19Sep2006               :
  PAW_PBE Mn_pv 02Aug2007               :
  PAW_PBE O 08Apr2002                   :

 POSCAR: Na6 Mn8 O16
  positions in direct lattice
  velocities in cartesian coordinates
 exchange correlation table for  LEXCH =        8
   RHO(1)=    0.500       N(1)  =     2000
   RHO(2)=  100.500       N(2)  =     4000

 ion  position               nearest neighbor table
   1  0.521  0.489  0.250-  11 2.86   7 2.86
   2  0.163  0.328  0.750-  24 2.37  12 2.37
   3  0.837  0.143  0.250-
   4  0.999  1.000  0.497-  12 1.93  15 1.93  17 1.94  19 1.95  14 1.96  16 1.97   7 2.90   7 2.91
                             6 2.99   5 2.99   6 3.02   5 3.02
   5  0.999  0.503  0.499-  17 1.94  14 1.95  13 1.97  18 1.98  15 2.11  16 2.15   6 2.90   6 2.92
                             4 2.99   7 3.00   7 3.00   4 3.02
   6  0.497  0.001  0.506-  17 1.95  14 1.95  13 1.97  18 2.00  12 2.18  19 2.26   5 2.90   5 2.92
                             4 2.99   7 3.01   7 3.01   4 3.02
   7  0.498  0.502  0.500-  12 1.91  15 1.92  13 1.94  19 1.96  16 1.98  18 1.99   1 2.86   4 2.90
                             4 2.91   5 3.00   5 3.00   6 3.01   6 3.01
   8  0.999  1.000  0.003-  24 1.93  27 1.93  21 1.94  23 1.95  26 1.96  20 1.97  11 2.90  11 2.91
                            10 2.99   9 2.99  10 3.02   9 3.02
   9  0.999  0.503  0.001-  21 1.94  26 1.95  25 1.97  22 1.98  27 2.11  20 2.15  10 2.90  10 2.92
                             8 2.99  11 3.00  11 3.00   8 3.02
  10  0.497  0.001  0.994-  21 1.95  26 1.95  25 1.97  22 2.00  24 2.18  23 2.26   9 2.90   9 2.92
                             8 2.99  11 3.01  11 3.01   8 3.02
  11  0.498  0.502  0.000-  24 1.91  27 1.92  25 1.94  23 1.95  20 1.98  22 1.99   1 2.86   8 2.90
                             8 2.91   9 3.00   9 3.00  10 3.01  10 3.01
  12  0.313  0.188  0.591-   7 1.91   4 1.93   6 2.18   2 2.37
  13  0.334  0.657  0.584-   7 1.94   5 1.97   6 1.97
  14  0.841  0.167  0.582-   6 1.95   5 1.95   4 1.96
  15  0.821  0.677  0.587-   7 1.92   4 1.93   5 2.11
  16  0.175  0.326  0.404-   4 1.97   7 1.98   5 2.15
  17  0.166  0.839  0.419-   5 1.94   4 1.94   6 1.95
  18  0.660  0.335  0.413-   5 1.98   7 1.99   6 2.00
  19  0.680  0.819  0.403-   4 1.95   7 1.96   6 2.26
  20  0.175  0.326  0.096-   8 1.97  11 1.98   9 2.15
  21  0.166  0.839  0.081-   9 1.94   8 1.94  10 1.95
  22  0.660  0.335  0.087-   9 1.98  11 1.99  10 2.00
  23  0.680  0.819  0.097-   8 1.95  11 1.95  10 2.26
  24  0.313  0.188  0.909-  11 1.91   8 1.93  10 2.18   2 2.37
  25  0.334  0.657  0.916-  11 1.94   9 1.97  10 1.97
  26  0.841  0.168  0.918-  10 1.95   9 1.95   8 1.96
  27  0.821  0.677  0.913-  11 1.92   8 1.93   9 2.11

  LATTYP: Found a triclinic cell.
 ALAT       =     6.0139632648
 B/A-ratio  =     0.9667629314
 C/A-ratio  =     1.8962655919
 COS(alpha) =     0.0000323286
 COS(beta)  =     0.0000559318
 COS(gamma) =     0.4849477348

  Lattice vectors:

 A1 = (   2.9097909648,  -5.2631616597,   0.0001874005)
 A2 = (   5.8140720865,  -0.0073673242,   0.0001073963)
 A3 = (   0.0001577254,  -0.0002355865,  11.4040716063)

Analysis of symmetry for initial positions (statically):
 Subroutine PRICEL returns:
 Original cell was already a primitive cell.

 Routine SETGRP: Setting up the symmetry group for a
 triclinic supercell.

 Subroutine GETGRP returns: Found  1 space group operations
 (whereof  1 operations were pure point group operations)
 out of a pool of  2 trial point group operations.

The static configuration has the point symmetry C_1 .

Analysis of symmetry for dynamics (positions and initial velocities):
 Subroutine PRICEL returns:
 Original cell was already a primitive cell.

[...]

The dynamic configuration has the point symmetry C_1 .

Analysis of structural, dynamic, and magnetic symmetry:
 Subroutine PRICEL returns:
 Original cell was already a primitive cell.

 Routine SETGRP: Setting up the symmetry group for a
 triclinic supercell.

 Subroutine GETGRP returns: Found  1 space group operations
 (whereof  1 operations were pure point group operations)
 out of a pool of  2 trial point group operations.

The overall configuration has the point symmetry C_1 .

 Subroutine INISYM returns: Found  1 space group operations
 (whereof  1 operations are pure point group operations),
 and found     1 'primitive' translations

                                     Primitive cell

  volume of cell :     348.7247

  direct lattice vectors                    reciprocal lattice vectors
    -2.904281122 -5.255794336  0.000080004    -0.172117070 -0.095156624  0.000000415
    -2.909790965  5.263161660 -0.000187400    -0.171876142  0.094976440  0.000004339
    -0.000157725  0.000235587-11.404071606     0.000001617 -0.000002228 -0.087687980

  length of vectors
     6.004849951  6.013963265 11.404071610     0.196669949  0.196371923  0.087687980

  position of ions in fractional coordinates (direct lattice)
     0.521390752  0.488630404  0.249996957
     0.162575594  0.328431079  0.750001832
     0.837468404  0.142507987  0.249996467
     0.998816784  0.999925921  0.497324093
     0.999078275  0.502820249  0.498859928
     0.496821907  0.001430748  0.505881765
     0.498479950  0.502332506  0.499912935
     0.998834212  0.999933101  0.002679047
     0.999070826  0.502812254  0.001137807
     0.496831474  0.001449863  0.994123130
     0.498481491  0.502354903  0.000086028
     0.313055365  0.188006125  0.591328480
     0.334238352  0.657025377  0.584492426
     0.841124450  0.167494038  0.581535042
     0.821352008  0.677277964  0.586878831
     0.175188722  0.325770973  0.403649367
     0.166124727  0.839280304  0.418870255
     0.659844488  0.335292122  0.413242726
     0.680114629  0.818533833  0.402927667
     0.175198849  0.325750027  0.096357784
     0.166126415  0.839274601  0.081124772
     0.659852380  0.335283228  0.086756932
     0.680108857  0.818512687  0.097077342
     0.313069925  0.188013108  0.908669982
     0.334247888  0.657032130  0.915503809
     0.841143815  0.167519164  0.918463518
     0.821359462  0.677305304  0.913121078

  ion indices of the primitive-cell ions
   primitive index   ion index
                 1           1
                 2           2
                 3           3
                 4           4
                 5           5
                 6           6
                 7           7
                 8           8
                 9           9
                10          10
                11          11
                12          12
                13          13
                14          14
                15          15
                16          16
                17          17
                18          18
                19          19
                20          20
                21          21
                22          22
                23          23
                24          24
                25          25
                26          26
                27          27

 KPOINTS: pymatgen with grid density = 1046 / numb

Automatic generation of k-mesh.
 Grid dimensions read from file:
 generate k-points for:    4    4    2

 Generating k-lattice:

[...]

 Steepest descent step on ions:
 trial-energy change:    0.221437  1 .order    0.409410   -2.658496    3.477315
  (g-gl).g = 0.266E+01      g.g   = 0.266E+01  gl.gl    = 0.000E+00
 g(Force)  = 0.589E+00   g(Stress)= 0.207E+01 ortho     = 0.000E+00
 gamma     =   0.00000
 trial     =   1.00000
 opt step  =   0.47915  (harmonic =   0.43328) maximal distance =0.02112976
 next E    =  -267.819443   (d E  =  -0.65758)

--------------------------------------- Ionic step        3  -------------------------------------------

[...]

 eigenvalue-minimisations  :     0
 total energy-change (2. order) : 0.1621179E+02  (-0.1313210E+02)
 number of electron     221.0000021 magnetization      27.0000017
 augmentation part       81.5091411 magnetization      19.3482483

[...]

--------------------------------------- Iteration      3(  12)  ---------------------------------------

 eigenvalue-minimisations  :     0
 total energy-change (2. order) :-0.9929664E-03  (-0.6208468E-03)
 number of electron     221.0000021 magnetization      27.0000018
 augmentation part       80.9852304 magnetization      19.5282723

 Free energy of the ion-electron system (eV)
  alpha Z        PSCENC =       827.99614280
  Ewald energy   TEWEN  =    -12487.34543766
  -Hartree energ DENC   =    -11123.15733058
  -exchange      EXHF   =       675.66001451
  -V(xc)+E(xc)   XCENC  =       823.68326883
  PAW double counting   =     27260.11520712   -27888.23893095
  entropy T*S    EENTRO =        -0.00507434
  eigenvalues    EBANDS =     -3677.87312158
  atomic energy  EATOM  =     25321.33763079
  free energy    TOTEN  =      -267.83909682 eV

  energy without entropy =     -267.83402248  energy(sigma->0) =     -267.83655965
  exchange ACFDT corr.  =        -0.01189096  see jH, gK, PRB 81, 115126

  average scaling for gradient   0.8044

 average (electrostatic) potential at core
  the test charge radii are     0.9254  0.9577  0.7215
  (the norm of the test charge is              1.0000)
       1 -38.8843       2 -38.4469       3 -39.2595       4 -67.2291       5 -66.5058
       6 -65.7554       7 -67.2743       8 -67.2451       9 -66.5580      10 -65.7698
      11 -67.2915      12 -65.7269      13 -66.2097      14 -66.1329      15 -66.1334
      16 -66.0607      17 -66.1732      18 -66.1430      19 -65.6582      20 -66.0828
      21 -66.1878      22 -66.1592      23 -65.6687      24 -65.7380      25 -66.2259
      26 -66.1472      27 -66.1592

 E-fermi :   2.7854     XC(G=0):  -8.1092     alpha+bet :-10.1550

 Fermi energy:         2.7853616721

[...]

 k-point    20 :       0.5000    0.5000    0.5000
  band No.  band energies     occupation
      1     -53.2644      1.00000
      2     -53.2547      1.00000
      3     -53.2476      1.00000
      4     -53.2373      1.00000
      5     -53.2161      1.00000
      6     -53.2002      1.00000
      7     -53.1989      1.00000
      8     -53.1820      1.00000
      9     -53.1716      1.00000
     10     -53.1556      1.00000
     11     -53.1264      1.00000
     12     -53.1101      1.00000
     13     -52.9264      1.00000
     14     -52.9070      1.00000
     15     -52.8770      1.00000
     16     -52.8681      1.00000
     17     -52.8573      1.00000
     18     -52.8179      1.00000
     19     -52.3758      1.00000
     20     -52.3609      1.00000
     21     -52.3588      1.00000
     22     -52.3445      1.00000
     23     -52.2271      1.00000
     24     -52.2129      1.00000
     25     -22.7598      1.00000
     26     -22.7514      1.00000
     27     -22.7465      1.00000
     28     -22.4198      1.00000
     29     -22.3867      1.00000
     30     -22.3709      1.00000
     31     -21.9593      1.00000
     32     -21.9432      1.00000
     33     -21.9415      1.00000
     34     -18.8125      1.00000
     35     -18.7943      1.00000
     36     -18.7181      1.00000
     37     -18.7033      1.00000
     38     -18.0068      1.00000
     39     -17.9902      1.00000
     40     -17.7810      1.00000
     41     -17.7637      1.00000
     42     -17.6733      1.00000
     43     -17.6544      1.00000
     44     -17.5954      1.00000
     45     -17.5788      1.00000
     46     -17.5378      1.00000
     47     -17.5253      1.00000
     48     -17.3339      1.00000
     49     -17.3068      1.00000
     50      -5.7150      1.00000
     51      -5.6921      1.00000
     52      -5.5308      1.00000
     53      -5.5020      1.00000
     54      -5.4944      1.00000
     55      -5.4771      1.00000
     56      -5.0893      1.00000
     57      -5.0704      1.00000
     58      -5.0437      1.00000
     59      -5.0226      1.00000
     60      -4.9795      1.00000
[...]
    178      18.8126      0.00000
    179      18.9446      0.00000
    180      19.0168      0.00000
    181      19.3297      0.00000
    182      19.5487      0.00000
    183      19.6684      0.00000
    184      19.8017      0.00000
    185      19.8542      0.00000
    186      19.8983      0.00000
    187      20.0432      0.00000
    188      20.5935      0.00000
    189      20.8192      0.00000
    190      21.3813      0.00000
    191      21.4420      0.00000
    192      21.4505      0.00000
 Fermi energy:         2.7853616721

 spin component 2

[...]

 k-point    20 :       0.5000    0.5000    0.5000
  band No.  band energies     occupation
      1     -48.7577      1.00000
      2     -48.7415      1.00000
      3     -48.6346      1.00000
      4     -48.6179      1.00000
      5     -48.6008      1.00000
      6     -48.5848      1.00000
      7     -48.5645      1.00000
      8     -48.5488      1.00000
      9     -48.4729      1.00000
     10     -48.4561      1.00000
     11     -48.3817      1.00000
     12     -48.3660      1.00000
     13     -47.8656      1.00000
     14     -47.8196      1.00000
     15     -47.7056      1.00000
     16     -47.6538      1.00000
     17     -47.1190      1.00000
     18     -47.1038      1.00000
     19     -47.0623      1.00000
     20     -47.0134      1.00000
     21     -46.9236      1.00000
     22     -46.9096      1.00000
     23     -45.8425      1.00000
     24     -45.8283      1.00000
     25     -22.7609      1.00000
     26     -22.7549      1.00000
     27     -22.7484      1.00000
     28     -22.4167      1.00000
     29     -22.3842      1.00000
     30     -22.3653      1.00000
     31     -21.9505      1.00000
     32     -21.9400      1.00000
     33     -21.9375      1.00000
     34     -18.7777      1.00000
     35     -18.7576      1.00000
     36     -18.7160      1.00000
     37     -18.6995      1.00000
     38     -18.0302      1.00000
     39     -18.0131      1.00000
     40     -17.8044      1.00000
     41     -17.7866      1.00000
     42     -17.6842      1.00000
     43     -17.6649      1.00000
     44     -17.6319      1.00000
     45     -17.6141      1.00000
     46     -17.4025      1.00000
     47     -17.3888      1.00000
     48     -17.1846      1.00000
     49     -17.1609      1.00000
     50      -4.1786      1.00000
     51      -4.1620      1.00000
     52      -4.1197      1.00000
     53      -4.0880      1.00000
     54      -4.0858      1.00000
     55      -4.0685      1.00000
     56      -4.0042      1.00000
     57      -3.9511      1.00000
     58      -3.9359      1.00000
     59      -3.9207      1.00000
     60      -3.5845      1.00000
[...]
    178      19.2418      0.00000
    179      19.2502      0.00000
    180      19.7662      0.00000
    181      20.1030      0.00000
    182      20.2576      0.00000
    183      20.3517      0.00000
    184      20.4957      0.00000
    185      20.5106      0.00000
    186      20.5769      0.00000
    187      20.8549      0.00000
    188      21.2145      0.00000
    189      21.3722      0.00000
    190      21.8483      0.00000
    191      21.9468      0.00000
    192      22.0431      0.00000

[...]

 soft charge-density along one line, spin component           2
         0         1         2         3         4         5         6         7         8         9
 total charge-density along one line

------------------------ aborting loop because EDIFF is reached ----------------------------------------

[...]

  FORCE on cell =-STRESS in cart. coord.  units (eV):
  Direction    XX          YY          ZZ          XY          YZ          ZX
  Alpha Z   827.99614   827.99614   827.99614
  Ewald     727.84511   -75.89189-13139.34753    -9.45645    -0.26658     0.26787
  Hartree  7529.09987  7081.09235 -3486.73588    -7.80369    -0.28947     0.28955
  E(xc)    -918.97155  -919.51124  -921.49944    -0.00102     0.00011    -0.00011
  Local  -11514.49114-10297.97808 13271.62276    17.77476     0.55722    -0.58863
  n-local   241.66322   240.60980   235.69073    -0.06991     0.00831     0.00653
  augment   920.19498   934.05684   942.71905    -0.32495     0.00280     0.02238
  Kinetic  3308.80926  3340.21432  3408.12104    -0.33279     0.01315     0.01732
  Fock    -1124.18555 -1132.37628 -1137.01975     0.22341    -0.00177    -0.01190
  Total      -2.03965    -1.78804     1.54713     0.00937     0.02377     0.00301
  in kB      -9.84758    -8.63279     7.46965     0.04526     0.11478     0.01454

 VOLUME and BASIS-vectors are now :
  energy-cutoff  :      520.00
  volume of cell :      331.85
      direct lattice vectors                 reciprocal lattice vectors
    -2.843855204 -5.167221380  0.000123651    -0.175770587 -0.096789718  0.000000651
    -2.849418441  5.174557400 -0.000279785    -0.175521396  0.096600745  0.000007206
    -0.000252295  0.000382401-11.272228507     0.000002428 -0.000003459 -0.088713603

  length of vectors
     5.898108954  5.907218450 11.272228516     0.200657790  0.200348357  0.088713603

 FORCES acting on ions:
    Electron-Ion                     Ewald-Force                    Non-Local-Force
   -.797E+01 0.153E+02 0.182E+00   0.731E+01 -.152E+02 -.206E+00   0.634E+00 -.188E+00 0.148E-01
   -.617E+01 -.269E+02 -.148E+00   0.608E+01 0.248E+02 0.171E+00   0.933E-01 0.194E+01 -.151E-01
   -.803E+00 -.466E+02 0.134E+00   0.127E+01 0.441E+02 -.160E+00   -.445E+00 0.232E+01 0.171E-01
   -.208E+02 0.246E+02 0.113E+03   0.210E+02 -.249E+02 -.113E+03   -.235E+00 0.558E+00 0.442E+00
   0.103E+02 -.337E+02 0.120E+03   -.104E+02 0.341E+02 -.120E+03   0.239E+00 -.401E+00 0.206E+00
   -.784E+01 -.679E+01 0.224E+03   0.801E+01 0.687E+01 -.224E+03   -.280E+00 -.403E-01 -.592E-01
   0.235E+02 0.148E+02 0.162E+03   -.237E+02 -.146E+02 -.164E+03   0.206E+00 -.111E+00 0.188E+01
   -.209E+02 0.246E+02 -.113E+03   0.211E+02 -.250E+02 0.113E+03   -.231E+00 0.557E+00 -.440E+00
   0.104E+02 -.337E+02 -.120E+03   -.105E+02 0.342E+02 0.120E+03   0.239E+00 -.401E+00 -.207E+00
   -.789E+01 -.677E+01 -.224E+03   0.807E+01 0.685E+01 0.224E+03   -.279E+00 -.420E-01 0.560E-01
   0.236E+02 0.148E+02 -.162E+03   -.238E+02 -.147E+02 0.164E+03   0.204E+00 -.114E+00 -.188E+01
   -.626E+01 0.106E+03 0.537E+03   0.671E+01 -.113E+03 -.558E+03   -.397E+00 0.597E+01 0.183E+02
   0.394E+02 -.462E+02 0.521E+03   -.403E+02 0.463E+02 -.543E+03   0.824E+00 -.105E+00 0.192E+02
   -.375E+02 -.334E+02 0.516E+03   0.382E+02 0.322E+02 -.538E+03   -.636E+00 0.107E+01 0.185E+02
   0.673E+01 0.546E+02 0.578E+03   -.721E+01 -.588E+02 -.603E+03   0.419E+00 0.366E+01 0.214E+02
   0.376E+01 -.473E+02 -.410E+03   -.419E+01 0.507E+02 0.427E+03   0.384E+00 -.296E+01 -.152E+02
   0.131E+02 0.279E+02 -.443E+03   -.142E+02 -.276E+02 0.467E+03   0.107E+01 -.211E+00 -.206E+02
   -.143E+02 0.319E+02 -.383E+03   0.156E+02 -.315E+02 0.401E+03   -.114E+01 -.373E+00 -.157E+02
   -.267E+01 -.674E+02 -.394E+03   0.320E+01 0.732E+02 0.411E+03   -.476E+00 -.520E+01 -.146E+02
   0.373E+01 -.473E+02 0.409E+03   -.416E+01 0.507E+02 -.427E+03   0.383E+00 -.295E+01 0.152E+02
   0.129E+02 0.280E+02 0.443E+03   -.140E+02 -.277E+02 -.467E+03   0.106E+01 -.206E+00 0.207E+02
   -.143E+02 0.319E+02 0.382E+03   0.156E+02 -.315E+02 -.400E+03   -.116E+01 -.381E+00 0.157E+02
   -.267E+01 -.673E+02 0.394E+03   0.320E+01 0.731E+02 -.411E+03   -.475E+00 -.520E+01 0.146E+02
   -.618E+01 0.106E+03 -.537E+03   0.663E+01 -.113E+03 0.558E+03   -.394E+00 0.597E+01 -.183E+02
   0.393E+02 -.463E+02 -.521E+03   -.403E+02 0.464E+02 0.543E+03   0.843E+00 -.102E+00 -.192E+02
   -.374E+02 -.335E+02 -.516E+03   0.381E+02 0.323E+02 0.538E+03   -.637E+00 0.107E+01 -.185E+02
   0.676E+01 0.546E+02 -.578E+03   -.725E+01 -.588E+02 0.603E+03   0.419E+00 0.365E+01 -.214E+02
   -.269E+00 -.817E+01 -.197E-01   -.115E-12 0.497E-13 -.796E-12   0.241E+00 0.777E+01 0.256E-02

 POSITION                                       TOTAL-FORCE (eV/Angst)
     -2.87509     -0.16569     -2.81787         0.018081     -0.018791     -0.011454
     -1.39831      0.85986     -8.45448         0.009202      0.036268      0.012733
     -2.78782     -3.58974     -2.81775        -0.011053      0.037288     -0.010580
     -5.68902      0.01049     -5.60833         0.002640      0.087436      0.051860
     -4.27537     -2.55934     -5.62409         0.071683     -0.019756      0.012627
     -1.41625     -2.55956     -5.70156        -0.071935     -0.023699     -0.003066
     -2.84954      0.02345     -5.64034        -0.003420      0.008609      0.119035
     -5.68902      0.01029     -0.02819         0.002648      0.088888     -0.052242
     -4.27523     -2.55955     -0.01206         0.071152     -0.024278     -0.013170
     -1.41645     -2.55935    -11.20666        -0.071863     -0.024534      0.007390
     -2.84940      0.02334      0.00400        -0.002683      0.008736     -0.117709
     -1.42705     -0.63589     -6.64593         0.001037      0.086241     -0.079830
     -2.82212      1.67234     -6.56835         0.016631     -0.011009      0.052601
     -2.86989     -3.47826     -6.53595        -0.020304     -0.044644      0.035595
     -4.26499     -0.73487     -6.59533        -0.002495     -0.077090     -0.068724
     -1.42609      0.77789     -4.56703         0.005491      0.063615     -0.030239
     -2.86211      3.48496     -4.74127         0.055404      0.051865      0.018623
     -2.83385     -1.67510     -4.67628        -0.051495     -0.007579     -0.083915
     -4.26720      0.71290     -4.55853        -0.010314     -0.141729      0.032253
     -1.42598      0.77759     -1.06965         0.007551      0.043023     -0.000654
     -2.86227      3.48488     -0.89576         0.035700      0.059357     -0.049208
     -2.83364     -1.67531     -0.96029        -0.039120     -0.004203      0.054101
     -4.26706      0.71279     -1.07827        -0.010331     -0.138684     -0.057172
     -1.42720     -0.63586    -10.26212         0.000248      0.085262      0.105941
     -2.82239      1.67248    -10.33983         0.005043     -0.014600     -0.021565
     -2.86984     -3.47819    -10.37182        -0.002076     -0.053333     -0.001723
     -4.26517     -0.73463    -10.31276        -0.005417     -0.052658      0.098494
    total drift:                                0.011199      0.046234     -0.025005

  FREE ENERGIE OF THE ION-ELECTRON SYSTEM (eV)
  free  energy   TOTEN  =      -267.83909682 eV

  energy  without entropy=     -267.83402248  energy(sigma->0) =     -267.83655965

 d Force = 0.2203365E+00[ 0.393E-02, 0.437E+00]  d Energy = 0.8986754E+00-0.678E+00
 d Force = 0.1771483E+03[ 0.172E+03, 0.183E+03]  d Ewald  = 0.2638085E+02 0.151E+03

 reached required accuracy - stopping structural energy minimisation

 total charge

[...]

 magnetization (x)

# of ion       s       p       d       tot
    1        0.001   0.001   0.000   0.003
    2        0.003   0.001   0.000   0.004
    3        0.000  -0.001   0.000  -0.001
    4        0.029   0.042   2.986   3.057
    5        0.036   0.039   3.465   3.540
    6        0.039   0.034   3.703   3.776
    7        0.028   0.041   2.965   3.034
    8        0.029   0.042   2.986   3.057
    9        0.036   0.039   3.465   3.541
   10        0.039   0.034   3.703   3.776
   11        0.028   0.040   2.965   3.034
   12        0.007   0.040   0.000   0.047
   13        0.001  -0.049   0.000  -0.048
   14        0.001  -0.046   0.000  -0.046
   15        0.004  -0.067   0.000  -0.063
   16        0.004  -0.044   0.000  -0.040
   17        0.001  -0.054   0.000  -0.053
   18        0.002  -0.040   0.000  -0.038
   19        0.007   0.050   0.000   0.057
   20        0.004  -0.044   0.000  -0.040
   21        0.001  -0.054   0.000  -0.053
   22        0.002  -0.040   0.000  -0.039
   23        0.007   0.050   0.000   0.057
   24        0.007   0.040   0.000   0.047
   25        0.001  -0.050   0.000  -0.049
   26        0.001  -0.046   0.000  -0.046
   27        0.004  -0.068   0.000  -0.064
tot          0.324  -0.111  26.237  26.450