 vasp.6.4.2 20Jul23 (build Nov 27 2023 21:25:52) complex

 executed on             LinuxIFC date 2024.12.10  16:55:08

 INCAR:
   ALGO = All
   EDIFF = 0.00135
   ENCUT = 520
   HFSCREEN = 0.2
   IBRION = 2
   ICHARG = 1
   ISIF = 3
   ISMEAR = 0
   ISPIN = 2
   LHFCALC = True
   LMAXMIX = 4
   LORBIT = 11
   LREAL = Auto
   LWAVE = False
   MAGMOM = 5*0.6 6*3.0 16*0.6
   NELM = 100
   NSW = 99
   PREC = Accurate
   PRECFOCK = Fast
   SIGMA = 0.05

 POTCAR:    PAW_PBE Na_pv 19Sep2006
 POTCAR:    PAW_PBE Li_sv 10Sep2004
 POTCAR:    PAW_PBE Mn_pv 02Aug2007
 POTCAR:    PAW_PBE O 08Apr2002
|           W    W    AA    RRRRR   N    N  II  N    N   GGGG   !!!           |
|           W    W   A  A   R    R  NN   N  II  NN   N  G    G  !!!           |
|           W    W  A    A  R    R  N N  N  II  N N  N  G       !!!           |
|           W WW W  AAAAAA  RRRRR   N  N N  II  N  N N  G  GGG   !            |
|           WW  WW  A    A  R   R   N   NN  II  N   NN  G    G                |
|           W    W  A    A  R    R  N    N  II  N    N   GGGG   !!!           |
|     For optimal performance we recommend to set                             |
|       NCORE = 2 up to number-of-cores-per-socket                            |
|     This setting can greatly improve the performance of VASP for DFT.       |
|     The default, NCORE=1 might be grossly inefficient on modern             |
|     multi-core architectures or massively parallel machines. Do your        |
|     Unfortunately you need to use the default for GW and RPA                |
|     calculations (for HF NCORE is supported but not extensively tested      |
|     yet).                                                                   |

 POTCAR:    PAW_PBE Na_pv 19Sep2006
   VRHFIN =Na: p6s1

   TITEL  = PAW_PBE Na_pv 19Sep2006
   POMASS =   22.990; ZVAL   =    7.000    mass and valenz
   ENMAX  =  259.561; ENMIN  =  194.671 eV

 POTCAR:    PAW_PBE Li_sv 10Sep2004
   VRHFIN =Li: 1s2s2p

   TITEL  = PAW_PBE Li_sv 10Sep2004
   POMASS =    7.010; ZVAL   =    3.000    mass and valenz
   ENMAX  =  499.034; ENMIN  =  374.276 eV

 POTCAR:    PAW_PBE Mn_pv 02Aug2007
   VRHFIN =Mn: 3p4s3d

   TITEL  = PAW_PBE Mn_pv 02Aug2007
   POMASS =   54.938; ZVAL   =   13.000    mass and valenz
   ENMAX  =  269.864; ENMIN  =  202.398 eV

 POTCAR:    PAW_PBE O 08Apr2002
   VRHFIN =O: s2p4

   TITEL  = PAW_PBE O 08Apr2002
   POMASS =   16.000; ZVAL   =    6.000    mass and valenz
   ENMAX  =  400.000; ENMIN  =  300.000 eV

 Optimization of the real space projectors (new method)

 maximal supplied QI-value         = 17.01
 optimisation between [QCUT,QGAM] = [ 11.57, 23.30] = [ 37.45,152.03] Ry
 Optimized for a Real-space Cutoff    1.45 Angstroem

   l    n(q)    QCUT    max X(q) W(low)/X(q) W(high)/X(q)  e(spline)
   1     10    11.565     4.940    0.87E-04    0.13E-03    0.13E-06
   1     10    11.565     6.253    0.13E-03    0.19E-03    0.20E-06
   0     10    11.565    37.438    0.53E-04    0.73E-05    0.79E-07
   0     10    11.565     9.606    0.27E-04    0.60E-05    0.56E-07
 Optimization of the real space projectors (new method)

[...]

   l    n(q)    QCUT    max X(q) W(low)/X(q) W(high)/X(q)  e(spline)
   1     10    11.539     3.658    0.56E-04    0.12E-03    0.13E-06
   1     10    11.539     5.612    0.11E-03    0.23E-03    0.24E-06
   2      9    11.539    55.373    0.45E-04    0.92E-04    0.22E-06
   2      9    11.539    50.863    0.47E-04    0.95E-04    0.22E-06
   0     10    11.539    79.536    0.46E-04    0.27E-04    0.11E-06
   0     10    11.539    38.668    0.38E-04    0.25E-04    0.10E-06
 Optimization of the real space projectors (new method)

 maximal supplied QI-value         = 24.76
 optimisation between [QCUT,QGAM] = [ 11.64, 23.27] = [ 37.91,151.63] Ry
 Optimized for a Real-space Cutoff    1.14 Angstroem

   l    n(q)    QCUT    max X(q) W(low)/X(q) W(high)/X(q)  e(spline)
   0      8    11.635    20.381    0.10E-03    0.33E-03    0.24E-06
   0      8    11.635    15.268    0.11E-03    0.35E-03    0.26E-06
   1      7    11.635     5.964    0.24E-03    0.31E-03    0.30E-06
   1      7    11.635     5.382    0.22E-03    0.25E-03    0.26E-06
  PAW_PBE Na_pv 19Sep2006               :
  PAW_PBE Li_sv 10Sep2004               :
  PAW_PBE Mn_pv 02Aug2007               :
  PAW_PBE O 08Apr2002                   :

 POSCAR: Na6 Li2 Mn6 O16
  positions in direct lattice
  velocities in cartesian coordinates
 exchange correlation table for  LEXCH =        8
   RHO(1)=    0.500       N(1)  =     2000
   RHO(2)=  100.500       N(2)  =     4000

 ion  position               nearest neighbor table
   1  0.327  0.687  0.251-  17 2.30  23 2.36  20 2.37
   2  0.160  0.304  0.751-
   3  0.841  0.152  0.247-  20 2.37  23 2.37
   4  0.501  0.982  0.547-  12 1.87  14 1.87  13 1.87
   5  0.001  0.016  0.013-  21 1.96  23 2.01  20 2.02  26 2.08  27 2.15  24 2.15   9 2.87
   6  0.996  0.990  0.492-  14 1.90  12 1.91  17 1.93  19 1.94  15 1.96  16 2.00   7 2.91   8 2.93
                             7 2.94   8 2.95
   7  0.999  0.489  0.500-  13 1.89  14 1.89  18 1.93  17 1.93  15 1.96  16 1.98   8 2.91   6 2.91
                             8 2.93   6 2.94
   8  0.499  0.492  0.491-  13 1.90  12 1.91  18 1.94  19 1.94  15 1.96  16 2.00   7 2.91   6 2.93
                             7 2.93   6 2.95
   9  0.001  0.506  0.001-  26 1.90  27 1.91  20 1.92  21 1.92  25 1.97  22 1.98   5 2.87  11 2.90
                            10 2.93  11 2.93  10 2.95
  10  0.502  0.010  0.995-  24 1.92  21 1.92  26 1.93  23 1.93  22 1.98  25 1.98  11 2.92   9 2.93
                            11 2.93   9 2.95
  11  0.499  0.510  0.008-  27 1.92  24 1.92  20 1.93  23 1.93  25 1.96  22 1.98   9 2.90  10 2.92
                             9 2.93  10 2.93
  12  0.319  0.166  0.576-   4 1.87   6 1.91   8 1.91
  13  0.315  0.623  0.586-   4 1.87   7 1.89   8 1.90
  14  0.858  0.168  0.586-   4 1.87   7 1.89   6 1.90
  15  0.824  0.659  0.583-   7 1.96   8 1.96   6 1.96
  16  0.165  0.329  0.400-   7 1.98   8 2.00   6 2.00
  17  0.136  0.803  0.403-   6 1.93   7 1.93   1 2.30
  18  0.693  0.358  0.401-   7 1.93   8 1.94
  19  0.673  0.820  0.402-   8 1.94   6 1.94
  20  0.171  0.366  0.097-   9 1.92  11 1.93   5 2.02   3 2.37   1 2.37
  21  0.174  0.837  0.083-   9 1.92  10 1.92   5 1.96
  22  0.665  0.332  0.093-   9 1.98  10 1.98  11 1.98
  23  0.642  0.839  0.093-  10 1.93  11 1.93   5 2.01   1 2.36   3 2.37
  24  0.365  0.201  0.911-  11 1.92  10 1.92   5 2.15
  25  0.337  0.667  0.911-  11 1.96   9 1.97  10 1.98
  26  0.835  0.190  0.910-   9 1.90  10 1.93   5 2.08
  27  0.821  0.652  0.917-   9 1.91  11 1.92   5 2.15

  LATTYP: Found a triclinic cell.
 ALAT       =     5.8334868891
 B/A-ratio  =     1.0025933079
 C/A-ratio  =     1.9203670506
 COS(alpha) =     0.0045573370
 COS(beta)  =     0.0182733111
 COS(gamma) =     0.4936582322

  Lattice vectors:

 A1 = (   2.9313811120,   5.0431855281,   0.0534208769)
 A2 = (  -2.9464673668,   5.0521723872,   0.0134414474)
 A3 = (   0.0762817694,   0.0737865748,  11.2019332808)

Analysis of symmetry for initial positions (statically):
 Subroutine PRICEL returns:
 Original cell was already a primitive cell.

 Routine SETGRP: Setting up the symmetry group for a
 triclinic supercell.

 Subroutine GETGRP returns: Found  1 space group operations
 (whereof  1 operations were pure point group operations)
 out of a pool of  2 trial point group operations.

The static configuration has the point symmetry C_1 .

Analysis of symmetry for dynamics (positions and initial velocities):
 Subroutine PRICEL returns:
 Original cell was already a primitive cell.

[...]

The dynamic configuration has the point symmetry C_1 .

Analysis of structural, dynamic, and magnetic symmetry:
 Subroutine PRICEL returns:
 Original cell was already a primitive cell.

 Routine SETGRP: Setting up the symmetry group for a
 triclinic supercell.

 Subroutine GETGRP returns: Found  1 space group operations
 (whereof  1 operations were pure point group operations)
 out of a pool of  2 trial point group operations.

The overall configuration has the point symmetry C_1 .

 Subroutine INISYM returns: Found  1 space group operations
 (whereof  1 operations are pure point group operations),
 and found     1 'primitive' translations

                                     Primitive cell

  volume of cell :     332.3250

  direct lattice vectors                    reciprocal lattice vectors
    -2.931381112 -5.043185528 -0.053420877    -0.170294473 -0.099321925  0.001813882
    -2.946467367  5.052172387  0.013441447    -0.169982670  0.098798054  0.000506753
    -0.076281769 -0.073786575-11.201933281     0.000608151  0.000592206 -0.089278347

  length of vectors
     5.833486889  5.848614917 11.202436012     0.197150558  0.196609817  0.089282382

  position of ions in fractional coordinates (direct lattice)
     0.327448137  0.686632647  0.250627861
     0.160383898  0.303850876  0.750856985
     0.841063979  0.152462249  0.246786598
     0.501095883  0.982191047  0.547047118
     0.000863759  0.016464345  0.012916034
     0.995917174  0.990232527  0.492148093
     0.998836975  0.489213399  0.500266699
     0.498673838  0.492279669  0.491362898
     0.000514262  0.506050789  0.000981888
     0.502113469  0.009697682  0.994879470
     0.499256305  0.509527605  0.008373739
     0.319246266  0.166066644  0.576218132
     0.315191342  0.623476018  0.586243828
     0.858186818  0.168432191  0.585835645
     0.824492193  0.659226920  0.583314144
     0.164517149  0.328862035  0.400044408
     0.135688952  0.802518325  0.402965154
     0.693181609  0.357993055  0.401283236
     0.672915849  0.819899456  0.402431594
     0.171221807  0.366197827  0.097362304
     0.173506740  0.836644812  0.083201594
     0.664873668  0.332493285  0.093231884
     0.642207239  0.838770108  0.092661806
     0.365313729  0.201114593  0.911141409
     0.336757838  0.667416694  0.910927070
     0.835341772  0.190494623  0.910348197
     0.821189350  0.651790579  0.916542214

  ion indices of the primitive-cell ions
   primitive index   ion index
                 1           1
                 2           2
                 3           3
                 4           4
                 5           5
                 6           6
                 7           7
                 8           8
                 9           9
                10          10
                11          11
                12          12
                13          13
                14          14
                15          15
                16          16
                17          17
                18          18
                19          19
                20          20
                21          21
                22          22
                23          23
                24          24
                25          25
                26          26
                27          27

 KPOINTS: pymatgen with grid density = 1046 / numb

Automatic generation of k-mesh.
 Grid dimensions read from file:
 generate k-points for:    4    4    2

 Generating k-lattice:

[...]

 Conjugate gradient step on ions:
 trial-energy change:   -0.008653  1 .order   -0.007245   -0.008984   -0.005506
  (g-gl).g = 0.220E-01      g.g   = 0.147E-01  gl.gl    = 0.603E-01
 g(Force)  = 0.112E-01   g(Stress)= 0.352E-02 ortho     =-0.746E-02
 gamma     =   0.36394
 trial     =   0.74990
 opt step  =   1.93695  (harmonic =   1.93695) maximal distance =0.01559367
 next E    =  -239.745733   (d E  =  -0.01160)

--------------------------------------- Ionic step        9  -------------------------------------------

[...]

 eigenvalue-minimisations  :     0
 total energy-change (2. order) : 0.6797400E+00  (-0.5365301E+00)
 number of electron     200.9999997 magnetization      14.9999999
 augmentation part       68.0690115 magnetization      12.4569979

[...]

--------------------------------------- Iteration      9(   7)  ---------------------------------------

 eigenvalue-minimisations  :     0
 total energy-change (2. order) :-0.9776968E-03  (-0.4263869E-03)
 number of electron     200.9999997 magnetization      14.9999999
 augmentation part       68.0152204 magnetization      12.4771470

 Free energy of the ion-electron system (eV)
  alpha Z        PSCENC =       677.77155732
  Ewald energy   TEWEN  =    -10606.81876138
  -Hartree energ DENC   =     -9443.42306739
  -exchange      EXHF   =       612.73771325
  -V(xc)+E(xc)   XCENC  =       736.11858759
  PAW double counting   =     23064.09875606   -23631.40851401
  entropy T*S    EENTRO =        -0.00479724
  eigenvalues    EBANDS =     -3337.32531745
  atomic energy  EATOM  =     21688.48351686
  free energy    TOTEN  =      -239.74620763 eV

  energy without entropy =     -239.74141039  energy(sigma->0) =     -239.74380901
  exchange ACFDT corr.  =        -0.01252931  see jH, gK, PRB 81, 115126

  average scaling for gradient   0.9698

 average (electrostatic) potential at core
  the test charge radii are     0.9254  0.7079  0.9577  0.7215
  (the norm of the test charge is              1.0000)
       1 -39.3259       2 -38.7865       3 -39.6454       4 -54.2150       5 -54.1168
       6 -67.9196       7 -68.0190       8 -67.9797       9 -67.6334      10 -67.4712
      11 -67.7392      12 -66.2441      13 -66.4049      14 -66.3222      15 -67.1324
      16 -67.1528      17 -67.3334      18 -67.8440      19 -66.5666      20 -66.1435
      21 -65.8420      22 -66.7652      23 -65.8899      24 -66.2643      25 -66.7934
      26 -66.1461      27 -67.8893

 E-fermi :   1.2012     XC(G=0):  -8.0056     alpha+bet :-10.2341

 Fermi energy:         1.2012360754

[...]

 k-point    20 :       0.5000    0.5000    0.5000
  band No.  band energies     occupation
      1     -53.9832      1.00000
      2     -53.9586      1.00000
      3     -53.9186      1.00000
      4     -53.9105      1.00000
      5     -53.8971      1.00000
      6     -53.8920      1.00000
      7     -53.8589      1.00000
      8     -53.8348      1.00000
      9     -53.7883      1.00000
     10     -53.6972      1.00000
     11     -53.6640      1.00000
     12     -53.6057      1.00000
     13     -53.5914      1.00000
     14     -53.5715      1.00000
     15     -53.5014      1.00000
     16     -53.4620      1.00000
     17     -53.3852      1.00000
     18     -53.3590      1.00000
     19     -44.5040      1.00000
     20     -44.3939      1.00000
     21     -23.2217      1.00000
     22     -23.1345      1.00000
     23     -23.1234      1.00000
     24     -22.8552      1.00000
     25     -22.8107      1.00000
     26     -22.8053      1.00000
     27     -22.2943      1.00000
     28     -22.2796      1.00000
     29     -22.2747      1.00000
     30     -19.4348      1.00000
     31     -19.1095      1.00000
     32     -19.0755      1.00000
     33     -18.7338      1.00000
     34     -18.2746      1.00000
     35     -18.2019      1.00000
     36     -18.1107      1.00000
     37     -17.9773      1.00000
     38     -17.9322      1.00000
     39     -17.8431      1.00000
     40     -17.7278      1.00000
     41     -17.6650      1.00000
     42     -17.5853      1.00000
     43     -17.4341      1.00000
     44     -17.3688      1.00000
     45     -17.1601      1.00000
     46      -6.2582      1.00000
     47      -6.0068      1.00000
     48      -5.8464      1.00000
     49      -5.7393      1.00000
     50      -5.6816      1.00000
     51      -5.6173      1.00000
     52      -5.4733      1.00000
     53      -5.3234      1.00000
     54      -5.3037      1.00000
     55      -5.2653      1.00000
     56      -5.1390      1.00000
     57      -4.9902      1.00000
     58      -4.9541      1.00000
     59      -4.9247      1.00000
     60      -4.8747      1.00000
[...]
    178      21.7677      0.00000
    179      21.8757      0.00000
    180      22.0696      0.00000
    181      22.1836      0.00000
    182      22.4366      0.00000
    183      22.4816      0.00000
    184      22.7879      0.00000
    185      22.9423      0.00000
    186      22.9861      0.00000
    187      23.2378      0.00000
    188      23.3519      0.00000
    189      23.7635      0.00000
    190      23.8387      0.00000
    191      24.0725      0.00000
    192      24.4127      0.00000
 Fermi energy:         1.2012360754

 spin component 2

[...]

 k-point    20 :       0.5000    0.5000    0.5000
  band No.  band energies     occupation
      1     -49.5140      1.00000
      2     -49.4680      1.00000
      3     -49.3746      1.00000
      4     -49.3513      1.00000
      5     -49.2804      1.00000
      6     -49.2566      1.00000
      7     -49.1946      1.00000
      8     -49.1880      1.00000
      9     -49.1616      1.00000
     10     -49.1170      1.00000
     11     -49.0925      1.00000
     12     -49.0572      1.00000
     13     -49.0048      1.00000
     14     -48.9500      1.00000
     15     -48.8881      1.00000
     16     -48.8434      1.00000
     17     -48.7314      1.00000
     18     -48.6242      1.00000
     19     -44.4799      1.00000
     20     -44.3717      1.00000
     21     -23.2214      1.00000
     22     -23.1361      1.00000
     23     -23.1237      1.00000
     24     -22.8535      1.00000
     25     -22.8107      1.00000
     26     -22.8028      1.00000
     27     -22.2918      1.00000
     28     -22.2746      1.00000
     29     -22.2726      1.00000
     30     -20.0593      1.00000
     31     -19.9881      1.00000
     32     -19.4590      1.00000
     33     -19.1827      1.00000
     34     -19.1107      1.00000
     35     -18.7767      1.00000
     36     -18.6730      1.00000
     37     -18.3898      1.00000
     38     -18.1242      1.00000
     39     -18.0735      1.00000
     40     -18.0238      1.00000
     41     -18.0032      1.00000
     42     -17.8965      1.00000
     43     -17.7633      1.00000
     44     -17.6253      1.00000
     45     -17.4627      1.00000
     46      -5.2961      1.00000
     47      -5.0748      1.00000
     48      -4.9258      1.00000
     49      -4.8823      1.00000
     50      -4.5369      1.00000
     51      -4.5148      1.00000
     52      -4.4936      1.00000
     53      -4.4028      1.00000
     54      -4.3284      1.00000
     55      -4.2492      1.00000
     56      -4.2160      1.00000
     57      -4.1638      1.00000
     58      -4.0048      1.00000
     59      -3.9804      1.00000
     60      -3.8978      1.00000
[...]
    178      22.0881      0.00000
    179      22.1435      0.00000
    180      22.3728      0.00000
    181      22.6125      0.00000
    182      22.8308      0.00000
    183      22.9152      0.00000
    184      23.2198      0.00000
    185      23.3679      0.00000
    186      23.4278      0.00000
    187      23.7623      0.00000
    188      23.8380      0.00000
    189      23.8844      0.00000
    190      24.0129      0.00000
    191      24.2575      0.00000
    192      24.5798      0.00000

[...]

 soft charge-density along one line, spin component           2
         0         1         2         3         4         5         6         7         8         9
 total charge-density along one line

------------------------ aborting loop because EDIFF is reached ----------------------------------------

[...]

  FORCE on cell =-STRESS in cart. coord.  units (eV):
  Direction    XX          YY          ZZ          XY          YZ          ZX
  Alpha Z   677.77156   677.77156   677.77156
  Ewald    -411.48608  -601.93917 -9593.43244    53.64102   176.98149   136.16214
  Hartree  5659.04390  5516.71460 -1732.64383    46.10240   137.06885   106.55418
  E(xc)    -820.30693  -820.13661  -821.74272     0.06673     0.03909    -0.03084
  Local   -8185.79346 -7869.14095  8314.92680  -103.27665  -313.06859  -237.20393
  n-local    74.85825    71.54929    71.36447    -1.14038    -0.30206     1.31867
  augment   780.66842   783.24112   792.75100     0.40126    -0.31652    -0.78787
  Kinetic  3135.29471  3153.41938  3205.44058     4.60355    -0.66545    -6.47706
  Fock     -910.66280  -911.48707  -915.83997    -0.13443     0.18299     0.31482
  Total      -0.61244    -0.00786    -1.40455     0.26351    -0.08021    -0.14991
  in kB      -3.08326    -0.03955    -7.07111     1.32662    -0.40380    -0.75469

 VOLUME and BASIS-vectors are now :
  energy-cutoff  :      520.00
  volume of cell :      318.24
      direct lattice vectors                 reciprocal lattice vectors
    -2.858140452 -4.908670511 -0.047222878    -0.174378888 -0.102203739  0.001775309
    -2.886942472  4.925702468  0.001910130    -0.173768586  0.101171048  0.000840359
    -0.084493131 -0.051540330-11.266451449     0.000701441  0.000445536 -0.088766391

  length of vectors
     5.680338285  5.709376962 11.266886160     0.202130534  0.201076624  0.088770280

 FORCES acting on ions:
    Electron-Ion                     Ewald-Force                    Non-Local-Force
   0.339E+02 -.287E+02 0.630E+02   -.335E+02 0.290E+02 -.604E+02   -.391E+00 -.204E+00 -.232E+01
   -.283E+02 0.268E+02 0.209E+02   0.286E+02 -.269E+02 -.205E+02   -.305E+00 0.402E-01 -.368E+00
   -.268E+02 0.154E+02 0.301E+02   0.265E+02 -.166E+02 -.287E+02   0.223E+00 0.102E+01 -.125E+01
   0.446E+00 -.152E+02 0.116E+03   -.495E+00 0.153E+02 -.118E+03   0.756E-01 -.157E+00 0.149E+01
   -.194E+02 0.211E+02 -.305E+02   0.190E+02 -.211E+02 0.291E+02   0.390E+00 0.244E-01 0.132E+01
   -.271E+02 0.577E+02 0.137E+03   0.267E+02 -.571E+02 -.138E+03   0.336E+00 -.554E+00 0.191E+01
   -.989E+01 -.907E+02 0.240E+03   0.947E+01 0.891E+02 -.242E+03   0.358E+00 0.145E+01 0.234E+01
   0.267E+02 0.689E+02 0.125E+03   -.262E+02 -.676E+02 -.127E+03   -.365E+00 -.123E+01 0.219E+01
   -.181E+00 -.858E+02 -.207E+03   -.434E+00 0.843E+02 0.207E+03   0.417E+00 0.146E+01 0.850E+00
   -.700E+01 -.211E+02 -.297E+03   0.729E+01 0.212E+02 0.297E+03   -.185E+00 -.240E+00 0.449E+00
   0.509E+02 0.660E+02 -.110E+03   -.496E+02 -.647E+02 0.110E+03   -.130E+01 -.113E+01 0.416E+00
   -.532E+01 0.231E+03 0.439E+03   0.532E+01 -.241E+03 -.457E+03   0.125E-01 0.858E+01 0.162E+02
   0.189E+03 -.110E+03 0.491E+03   -.197E+03 0.114E+03 -.513E+03   0.710E+01 -.345E+01 0.186E+02
   -.199E+03 -.108E+03 0.481E+03   0.208E+03 0.112E+03 -.501E+03   -.734E+01 -.356E+01 0.179E+02
   -.874E+00 -.111E+02 0.575E+03   0.105E+01 0.124E+02 -.601E+03   -.145E+00 -.116E+01 0.232E+02
   -.225E+00 0.539E+02 -.387E+03   0.911E-01 -.554E+02 0.408E+03   0.116E+00 0.138E+01 -.181E+02
   0.170E+03 0.414E+02 -.323E+03   -.179E+03 -.447E+02 0.340E+03   0.768E+01 0.288E+01 -.150E+02
   -.164E+03 0.474E+02 -.336E+03   0.173E+03 -.508E+02 0.354E+03   -.743E+01 0.302E+01 -.154E+02
   0.537E+01 -.152E+03 -.292E+03   -.550E+01 0.161E+03 0.307E+03   0.101E+00 -.781E+01 -.134E+02
   -.149E+03 0.126E+03 0.321E+03   0.157E+03 -.132E+03 -.338E+03   -.710E+01 0.511E+01 0.150E+02
   0.121E+01 -.230E+03 0.305E+03   -.154E+01 0.242E+03 -.323E+03   0.324E+00 -.102E+02 0.155E+02
   -.109E+02 -.356E+02 0.411E+03   0.118E+02 0.360E+02 -.433E+03   -.806E+00 -.410E+00 0.197E+02
   0.153E+03 0.125E+03 0.284E+03   -.161E+03 -.130E+03 -.300E+03   0.732E+01 0.473E+01 0.133E+02
   -.151E+03 -.372E+02 -.489E+03   0.159E+03 0.407E+02 0.508E+03   -.715E+01 -.298E+01 -.171E+02
   0.491E+02 -.199E+02 -.577E+03   -.506E+02 0.198E+02 0.602E+03   0.131E+01 0.108E+00 -.214E+02
   -.446E+02 0.160E+03 -.490E+03   0.464E+02 -.169E+03 0.509E+03   -.172E+01 0.810E+01 -.166E+02
   0.164E+03 -.937E+02 -.512E+03   -.173E+03 0.998E+02 0.532E+03   0.851E+01 -.540E+01 -.172E+02
   -.180E+00 0.795E+00 -.127E+02   -.199E-12 -.853E-13 0.114E-12   0.240E-01 -.619E+00 0.123E+02

 POSITION                                       TOTAL-FORCE (eV/Angst)
     -2.94771      1.76127     -2.81191         0.025944      0.002654      0.041799
     -1.39464      0.66217     -8.48030         0.015590     -0.014201      0.002094
     -2.85468     -3.41279     -2.79659        -0.020551     -0.080972      0.002252
     -4.30716      2.34140     -6.22333         0.025666     -0.006583     -0.085750
     -0.09553      0.08949     -0.18163         0.008044     -0.032858     -0.049304
     -5.75192     -0.03100     -5.61540        -0.173277      0.043360      0.136945
     -1.45326      2.38594     -5.64812        -0.057493     -0.264898      0.134738
     -2.88350     -0.03485     -5.58832         0.192740      0.155756      0.081282
     -1.46728      2.48046     -0.02552        -0.162719     -0.022976      0.023948
     -1.53780     -2.46199    -11.25299         0.117875     -0.076514     -0.016146
     -2.88351      0.06056     -0.11348        -0.022470      0.156388      0.086435
     -1.44353     -0.78140     -6.48804         0.009739      0.012959      0.090057
     -2.73686      1.49442     -6.60542         0.111082      0.026087      0.174700
     -2.99679     -3.41009     -6.61741        -0.032295      0.045441      0.117802
     -4.30633     -0.83717     -6.58864         0.009873     -0.012336      0.116667
     -1.45569      0.79222     -4.55121        -0.000455      0.032151     -0.179046
     -2.71050      3.28495     -4.53161         0.066497      0.046672     -0.101463
     -3.07346     -1.63436     -4.52704        -0.101620      0.055539     -0.090643
     -4.31930      0.69781     -4.57742        -0.014636     -0.041051     -0.133986
     -1.56583      0.95466     -1.08138        -0.080849      0.006545     -0.013434
     -2.90547      3.26356     -0.93075         0.047189     -0.062149     -0.014855
     -2.87152     -1.62319     -1.05546         0.005892     -0.014511     -0.009322
     -4.26319      0.95269     -1.03560         0.043414     -0.060656      0.027311
     -1.71200     -0.85126    -10.29938        -0.042231      0.057527     -0.104987
     -2.96543      1.59138    -10.30899        -0.013719      0.035480     -0.131523
     -3.01956     -3.18672    -10.31399        -0.070138      0.062023     -0.116981
     -4.28817     -0.88137    -10.32075         0.112910     -0.048876      0.011411
    total drift:                               -0.003692      0.061451     -0.054426

  FREE ENERGIE OF THE ION-ELECTRON SYSTEM (eV)
  free  energy   TOTEN  =      -239.74620763 eV

  energy  without entropy=     -239.74141039  energy(sigma->0) =     -239.74380901

 d Force = 0.4615891E-02[-0.285E-03, 0.952E-02]  d Energy = 0.3423627E-02 0.119E-02
 d Force =-0.1145483E+01[-0.123E+01,-0.106E+01]  d Ewald  =-0.3673923E+02 0.356E+02

 reached required accuracy - stopping structural energy minimisation

 total charge

[...]

 magnetization (x)

# of ion       s       p       d       tot
    1        0.004   0.001   0.000   0.004
    2        0.003   0.001   0.000   0.004
    3        0.002   0.000   0.000   0.002
    4        0.003   0.006   0.000   0.009
    5        0.004   0.004   0.000   0.008
    6        0.031   0.044   2.971   3.047
    7        0.031   0.047   2.912   2.991
    8        0.031   0.045   2.958   3.033
    9        0.031   0.048   2.932   3.010
   10        0.031   0.044   2.987   3.061
   11        0.030   0.046   2.940   3.016
   12        0.000  -0.051   0.000  -0.051
   13        0.001  -0.025   0.000  -0.024
   14        0.001  -0.022   0.000  -0.021
   15       -0.000  -0.082   0.000  -0.083
   16        0.000  -0.062   0.000  -0.061
   17       -0.008  -0.486   0.000  -0.494
   18       -0.010  -0.624   0.000  -0.634
   19       -0.003  -0.228   0.000  -0.231
   20        0.001  -0.016   0.000  -0.016
   21        0.000  -0.084   0.000  -0.084
   22       -0.000  -0.071   0.000  -0.071
   23        0.000  -0.042   0.000  -0.041
   24       -0.003  -0.220   0.000  -0.223
   25       -0.000  -0.079   0.000  -0.079
   26       -0.002  -0.206   0.000  -0.208
   27       -0.011  -0.708   0.000  -0.719
tot          0.165  -2.720  17.700  15.145