 vasp.6.4.2 20Jul23 (build Nov 27 2023 21:25:52) complex

 executed on             LinuxIFC date 2024.12.19  17:38:07

 INCAR:
   ALGO = All
   EDIFF = 0.00135
   ENCUT = 520
   HFSCREEN = 0.2
   IBRION = -1
   ICHARG = 1
   ISIF = 3
   ISMEAR = -5
   ISPIN = 2
   LHFCALC = True
   LMAXMIX = 4
   LORBIT = 11
   LREAL = Auto
   LWAVE = False
   LCHARG = True
   MAGMOM = 3*0.6 8*3.0 16*0.6
   NELM = 100
   NSW = 0
   PREC = Accurate
   PRECFOCK = Fast
   SIGMA = 0.05
   NEDOS = 10000

 POTCAR:    PAW_PBE Na_pv 19Sep2006
 POTCAR:    PAW_PBE Mn_pv 02Aug2007
 POTCAR:    PAW_PBE O 08Apr2002
|           W    W    AA    RRRRR   N    N  II  N    N   GGGG   !!!           |
|           W    W   A  A   R    R  NN   N  II  NN   N  G    G  !!!           |
|           W    W  A    A  R    R  N N  N  II  N N  N  G       !!!           |
|           W WW W  AAAAAA  RRRRR   N  N N  II  N  N N  G  GGG   !            |
|           WW  WW  A    A  R   R   N   NN  II  N   NN  G    G                |
|           W    W  A    A  R    R  N    N  II  N    N   GGGG   !!!           |
|     For optimal performance we recommend to set                             |
|       NCORE = 2 up to number-of-cores-per-socket                            |
|     This setting can greatly improve the performance of VASP for DFT.       |
|     The default, NCORE=1 might be grossly inefficient on modern             |
|     multi-core architectures or massively parallel machines. Do your        |
|     Unfortunately you need to use the default for GW and RPA                |
|     calculations (for HF NCORE is supported but not extensively tested      |
|     yet).                                                                   |

 POTCAR:    PAW_PBE Na_pv 19Sep2006
   VRHFIN =Na: p6s1

   TITEL  = PAW_PBE Na_pv 19Sep2006
   POMASS =   22.990; ZVAL   =    7.000    mass and valenz
   ENMAX  =  259.561; ENMIN  =  194.671 eV

 POTCAR:    PAW_PBE Mn_pv 02Aug2007
   VRHFIN =Mn: 3p4s3d

   TITEL  = PAW_PBE Mn_pv 02Aug2007
   POMASS =   54.938; ZVAL   =   13.000    mass and valenz
   ENMAX  =  269.864; ENMIN  =  202.398 eV

 POTCAR:    PAW_PBE O 08Apr2002
   VRHFIN =O: s2p4

   TITEL  = PAW_PBE O 08Apr2002
   POMASS =   16.000; ZVAL   =    6.000    mass and valenz
   ENMAX  =  400.000; ENMIN  =  300.000 eV

 Optimization of the real space projectors (new method)

 maximal supplied QI-value         = 17.01
 optimisation between [QCUT,QGAM] = [ 11.57, 23.30] = [ 37.45,152.03] Ry
 Optimized for a Real-space Cutoff    1.45 Angstroem

   l    n(q)    QCUT    max X(q) W(low)/X(q) W(high)/X(q)  e(spline)
   1     10    11.565     4.940    0.87E-04    0.13E-03    0.13E-06
   1     10    11.565     6.253    0.13E-03    0.19E-03    0.20E-06
   0     10    11.565    37.438    0.53E-04    0.73E-05    0.79E-07
   0     10    11.565     9.606    0.27E-04    0.60E-05    0.56E-07
 Optimization of the real space projectors (new method)

[...]

   l    n(q)    QCUT    max X(q) W(low)/X(q) W(high)/X(q)  e(spline)
   1     10    11.539     3.658    0.56E-04    0.12E-03    0.13E-06
   1     10    11.539     5.612    0.11E-03    0.23E-03    0.24E-06
   2      9    11.539    55.373    0.45E-04    0.92E-04    0.22E-06
   2      9    11.539    50.863    0.47E-04    0.95E-04    0.22E-06
   0     10    11.539    79.536    0.46E-04    0.27E-04    0.11E-06
   0     10    11.539    38.668    0.38E-04    0.25E-04    0.10E-06
 Optimization of the real space projectors (new method)

 maximal supplied QI-value         = 24.76
 optimisation between [QCUT,QGAM] = [ 11.64, 23.27] = [ 37.91,151.63] Ry
 Optimized for a Real-space Cutoff    1.14 Angstroem

   l    n(q)    QCUT    max X(q) W(low)/X(q) W(high)/X(q)  e(spline)
   0      8    11.635    20.381    0.10E-03    0.33E-03    0.24E-06
   0      8    11.635    15.268    0.11E-03    0.35E-03    0.26E-06
   1      7    11.635     5.964    0.24E-03    0.31E-03    0.30E-06
   1      7    11.635     5.382    0.22E-03    0.25E-03    0.26E-06
  PAW_PBE Na_pv 19Sep2006               :
  PAW_PBE Mn_pv 02Aug2007               :
  PAW_PBE O 08Apr2002                   :

 POSCAR: Na6 Mn8 O16
  positions in direct lattice
  velocities in cartesian coordinates
 exchange correlation table for  LEXCH =        8
   RHO(1)=    0.500       N(1)  =     2000
   RHO(2)=  100.500       N(2)  =     4000

 ion  position               nearest neighbor table
   1  0.318  0.667  0.248-  21 2.34  19 2.38
   2  0.176  0.324  0.752-  26 2.38
   3  0.822  0.161  0.248-  20 2.30
   4  0.995  0.993  0.495-  17 1.89  14 1.90  15 1.95  16 2.00  12 2.13  19 2.17   5 2.84   5 2.86
                             6 2.91   6 2.93   7 2.96   7 2.97
   5  0.993  0.494  0.499-  14 1.89  15 1.89  17 1.90  16 1.93  13 1.93  18 1.93   4 2.84   4 2.86
                             7 2.91   7 2.94   6 2.95   6 2.98
   6  0.495  0.996  0.504-  12 1.86  19 1.89  14 1.98  13 1.99  17 2.00  18 2.00   7 2.84   7 2.86
                             4 2.91   4 2.93   5 2.95   5 2.98
   7  0.496  0.495  0.494-  12 1.86  15 1.89  19 1.91  13 1.92  18 1.92  16 1.97   6 2.84   6 2.86
                             5 2.91   5 2.94   4 2.96   4 2.97
   8  0.007  0.003  0.007-  27 1.86  24 1.90  26 1.90  21 1.90  20 1.94  23 1.94   9 2.83   9 2.87
                            10 2.92  10 2.93  11 2.96  11 2.96
   9  0.007  0.507  0.002-  27 1.86  26 1.90  21 1.91  25 1.91  20 1.92  22 1.92   8 2.83   8 2.87
                            11 2.91  11 2.93  10 2.96  10 2.97
  10  0.507  0.005  0.995-  24 1.89  23 1.92  25 1.93  22 1.94  26 2.09  21 2.14  11 2.84  11 2.86
                             8 2.92   8 2.93   9 2.96   9 2.97
  11  0.507  0.503  0.004-  25 1.91  22 1.91  24 1.95  23 1.99  27 2.14  20 2.19  10 2.84  10 2.86
                             9 2.91   9 2.93   8 2.96   8 2.96
  12  0.358  0.186  0.585-   7 1.86   6 1.86   4 2.13
  13  0.315  0.643  0.584-   7 1.92   5 1.93   6 1.99
  14  0.838  0.166  0.582-   5 1.89   4 1.90   6 1.98
  15  0.812  0.651  0.577-   5 1.89   7 1.89   4 1.95
  16  0.166  0.340  0.407-   5 1.93   7 1.97   4 2.00
  17  0.162  0.824  0.415-   4 1.89   5 1.90   6 2.00
  18  0.674  0.335  0.410-   7 1.92   5 1.93   6 2.00
  19  0.625  0.819  0.405-   6 1.89   7 1.91   4 2.17   1 2.38
  20  0.137  0.323  0.101-   9 1.92   8 1.94  11 2.19   3 2.30
  21  0.153  0.822  0.095-   8 1.90   9 1.91  10 2.14   1 2.34
  22  0.677  0.334  0.084-  11 1.91   9 1.92  10 1.94
  23  0.674  0.848  0.089-  10 1.92   8 1.94  11 1.99
  24  0.326  0.166  0.921-  10 1.89   8 1.90  11 1.95
  25  0.332  0.662  0.920-  11 1.91   9 1.91  10 1.93
  26  0.873  0.187  0.913-   8 1.90   9 1.90  10 2.09   2 2.38
  27  0.877  0.696  0.916-   8 1.86   9 1.86  11 2.14

  LATTYP: Found a triclinic cell.
 ALAT       =     5.9264219980
 B/A-ratio  =     0.9619304360
 C/A-ratio  =     1.9012588477
 COS(alpha) =     0.0043207661
 COS(beta)  =     0.0107811636
 COS(gamma) =     0.4954967841

  Lattice vectors:

 A1 = (  -5.9257531355,  -0.0828298859,  -0.0326601635)
 A2 = (  -2.8936358238,   4.9118114318,  -0.0128751707)
 A3 = (  -0.0592795045,  -0.0079524603, -11.2675035157)

Analysis of symmetry for initial positions (statically):
 Subroutine PRICEL returns:
 Original cell was already a primitive cell.

 Routine SETGRP: Setting up the symmetry group for a
 triclinic supercell.

 Subroutine GETGRP returns: Found  1 space group operations
 (whereof  1 operations were pure point group operations)
 out of a pool of  2 trial point group operations.

The static configuration has the point symmetry C_1 .

Analysis of symmetry for dynamics (positions and initial velocities):
 Subroutine PRICEL returns:
 Original cell was already a primitive cell.

[...]

The dynamic configuration has the point symmetry C_1 .

Analysis of structural, dynamic, and magnetic symmetry:
 Subroutine PRICEL returns:
 Original cell was already a primitive cell.

 Routine SETGRP: Setting up the symmetry group for a
 triclinic supercell.

 Subroutine GETGRP returns: Found  1 space group operations
 (whereof  1 operations were pure point group operations)
 out of a pool of  2 trial point group operations.

The overall configuration has the point symmetry C_1 .

 Subroutine INISYM returns: Found  1 space group operations
 (whereof  1 operations are pure point group operations),
 and found     1 'primitive' translations

                                     Primitive cell

  volume of cell :     330.6449

  direct lattice vectors                    reciprocal lattice vectors
    -3.032117312 -4.994641318 -0.019784993    -0.167381860 -0.098605152  0.000950208
    -2.893635824  4.911811432 -0.012875171    -0.170203698  0.103322996  0.000822535
    -0.059279504 -0.007952460-11.267503516     0.000488400  0.000055079 -0.088753413

  length of vectors
     5.842993131  5.700805697 11.267662259     0.194269313  0.199112071  0.088754774

  position of ions in fractional coordinates (direct lattice)
     0.317953769  0.666833215  0.247954180
     0.176067033  0.324091647  0.752380418
     0.821930412  0.161486658  0.247541512
     0.995353188  0.993185842  0.495378341
     0.992581323  0.494294740  0.498522434
     0.494771591  0.996147931  0.503584712
     0.495502976  0.494827405  0.493775620
     0.007261464  0.003213308  0.006840511
     0.006769208  0.506667184  0.002456573
     0.507488590  0.004938917  0.994806553
     0.506969961  0.503243305  0.003838653
     0.358333626  0.185519399  0.584930484
     0.315021727  0.642565780  0.583908759
     0.837815236  0.166172044  0.581579912
     0.812464995  0.650917438  0.577262254
     0.166215647  0.339607709  0.407050167
     0.161850123  0.824245319  0.414541584
     0.673717807  0.335155227  0.409586988
     0.624526415  0.818834218  0.404695862
     0.136664198  0.323074531  0.101398041
     0.152563748  0.821947418  0.095427990
     0.677396652  0.334154191  0.083718983
     0.673542398  0.848007854  0.089027475
     0.325798418  0.165732134  0.920972538
     0.331943925  0.661568916  0.919744386
     0.872681391  0.187079718  0.913057919
     0.876814179  0.696487953  0.916017152

  ion indices of the primitive-cell ions
   primitive index   ion index
                 1           1
                 2           2
                 3           3
                 4           4
                 5           5
                 6           6
                 7           7
                 8           8
                 9           9
                10          10
                11          11
                12          12
                13          13
                14          14
                15          15
                16          16
                17          17
                18          18
                19          19
                20          20
                21          21
                22          22
                23          23
                24          24
                25          25
                26          26
                27          27

 KPOINTS: pymatgen with grid density = 1046 / numb

Automatic generation of k-mesh.
 Grid dimensions read from file:
 generate k-points for:    4    4    2

 Generating k-lattice:

[...]
    245      30.8306      0.00000
    246      31.0232      0.00000
    247      31.3738      0.00000
    248      31.5530      0.00000
    249      31.7021      0.00000
    250      31.9479      0.00000
    251      32.4223      0.00000
    252      32.5491      0.00000
    253      32.7999      0.00000
    254      32.8896      0.00000
    255      33.0483      0.00000
    256      33.2398      0.00000

[...]

 k-point    20 :       0.5000    0.5000    0.5000
  band No.  band energies     occupation
      1     -53.7267      1.00000
      2     -53.7061      1.00000
      3     -53.6885      1.00000
      4     -53.6472      1.00000
      5     -53.6326      1.00000
      6     -53.5710      1.00000
      7     -53.2608      1.00000
      8     -53.2501      1.00000
      9     -53.2158      1.00000
     10     -52.8447      1.00000
     11     -52.8037      1.00000
     12     -52.7674      1.00000
     13     -52.7572      1.00000
     14     -52.7334      1.00000
     15     -52.6821      1.00000
     16     -52.6597      1.00000
     17     -52.6149      1.00000
     18     -52.4951      1.00000
     19     -52.3880      1.00000
     20     -52.3639      1.00000
     21     -52.2938      1.00000
     22     -52.0269      1.00000
     23     -51.9975      1.00000
     24     -51.8524      1.00000
     25     -22.6521      1.00000
     26     -22.5418      1.00000
     27     -22.5194      1.00000
     28     -22.4920      1.00000
     29     -22.4795      1.00000
     30     -22.4647      1.00000
     31     -22.1495      1.00000
     32     -22.1294      1.00000
     33     -22.1230      1.00000
     34     -19.1213      1.00000
     35     -18.9410      1.00000
     36     -18.3944      1.00000
     37     -18.3132      1.00000
     38     -18.2360      1.00000
     39     -18.2163      1.00000
     40     -18.0223      1.00000
     41     -17.9141      1.00000
     42     -17.8417      1.00000
     43     -17.8052      1.00000
     44     -17.6290      1.00000
     45     -17.5939      1.00000
     46     -17.2513      1.00000
     47     -17.2187      1.00000
     48     -16.9937      1.00000
     49     -16.9627      1.00000
     50      -5.8189      1.00000
     51      -5.7761      1.00000
     52      -5.6714      1.00000
     53      -5.5080      1.00000
     54      -5.3010      1.00000
     55      -5.1901      1.00000
     56      -5.0811      1.00000
     57      -4.9827      1.00000
     58      -4.9653      1.00000
     59      -4.9318      1.00000
     60      -4.8740      1.00000
[...]
    242      30.5571      0.00000
    243      30.7968      0.00000
    244      30.8562      0.00000
    245      31.2918      0.00000
    246      31.6432      0.00000
    247      31.8172      0.00000
    248      31.9384      0.00000
    249      32.3576      0.00000
    250      32.4037      0.00000
    251      32.6162      0.00000
    252      32.7683      0.00000
    253      33.0730      0.00000
    254      33.2237      0.00000
    255      33.3130      0.00000
    256      33.5243      0.00000
 Fermi energy:         2.8626728495

 spin component 2

[...]

 k-point    20 :       0.5000    0.5000    0.5000
  band No.  band energies     occupation
      1     -49.1105      1.00000
      2     -49.0794      1.00000
      3     -49.0455      1.00000
      4     -48.9757      1.00000
      5     -48.8236      1.00000
      6     -48.7851      1.00000
      7     -48.4192      1.00000
      8     -48.2529      1.00000
      9     -48.1944      1.00000
     10     -48.1906      1.00000
     11     -48.1321      1.00000
     12     -48.0233      1.00000
     13     -48.0047      1.00000
     14     -47.9545      1.00000
     15     -47.7896      1.00000
     16     -47.5035      1.00000
     17     -47.2424      1.00000
     18     -47.0843      1.00000
     19     -47.0663      1.00000
     20     -46.8349      1.00000
     21     -46.4729      1.00000
     22     -46.2873      1.00000
     23     -46.1393      1.00000
     24     -45.4852      1.00000
     25     -22.6494      1.00000
     26     -22.5386      1.00000
     27     -22.5183      1.00000
     28     -22.4911      1.00000
     29     -22.4787      1.00000
     30     -22.4619      1.00000
     31     -22.1453      1.00000
     32     -22.1272      1.00000
     33     -22.1201      1.00000
     34     -19.1635      1.00000
     35     -18.9316      1.00000
     36     -18.4639      1.00000
     37     -18.3020      1.00000
     38     -18.1995      1.00000
     39     -18.1863      1.00000
     40     -18.0964      1.00000
     41     -17.9729      1.00000
     42     -17.7145      1.00000
     43     -17.6710      1.00000
     44     -17.6507      1.00000
     45     -17.5808      1.00000
     46     -17.2363      1.00000
     47     -17.2163      1.00000
     48     -16.8438      1.00000
     49     -16.8183      1.00000
     50      -4.4872      1.00000
     51      -4.3733      1.00000
     52      -4.3438      1.00000
     53      -4.2395      1.00000
     54      -4.2285      1.00000
     55      -4.0794      1.00000
     56      -3.7731      1.00000
     57      -3.7028      1.00000
     58      -3.6237      1.00000
     59      -3.5997      1.00000
     60      -3.4928      1.00000
[...]
    242      31.0341      0.00000
    243      31.1986      0.00000
    244      31.3297      0.00000
    245      31.7281      0.00000
    246      32.0674      0.00000
    247      32.2359      0.00000
    248      32.3194      0.00000
    249      32.7032      0.00000
    250      32.7679      0.00000
    251      32.9916      0.00000
    252      33.1768      0.00000
    253      33.4055      0.00000
    254      33.6721      0.00000
    255      33.7575      0.00000
    256      34.0490      0.00000

 soft charge-density along one line, spin component           1
         0         1         2         3         4         5         6         7         8         9
 total charge-density along one line

 soft charge-density along one line, spin component           2
         0         1         2         3         4         5         6         7         8         9
 total charge-density along one line

------------------------ aborting loop because EDIFF is reached ----------------------------------------

 total charge

# of ion       s       p       d       tot
    1        0.045   5.993   0.000   6.039
    2        0.035   5.982   0.000   6.017
    3        0.046   5.993   0.000   6.039
    4        0.313   6.366   4.837  11.515
    5        0.375   6.489   4.794  11.658
    6        0.341   6.428   4.799  11.568
    7        0.374   6.487   4.792  11.654
    8        0.378   6.495   4.798  11.671
    9        0.382   6.504   4.810  11.696
   10        0.325   6.389   4.810  11.524
   11        0.311   6.361   4.830  11.502
   12        1.577   3.492   0.000   5.069
   13        1.577   3.459   0.000   5.037
   14        1.576   3.480   0.000   5.056
   15        1.580   3.466   0.000   5.046
   16        1.570   3.487   0.000   5.057
   17        1.576   3.488   0.000   5.064
   18        1.576   3.462   0.000   5.038
   19        1.571   3.499   0.000   5.070
   20        1.569   3.493   0.000   5.062
   21        1.575   3.467   0.000   5.042
   22        1.572   3.501   0.000   5.073
   23        1.568   3.505   0.000   5.072
   24        1.573   3.503   0.000   5.076
   25        1.573   3.497   0.000   5.070
   26        1.577   3.468   0.000   5.045
   27        1.582   3.461   0.000   5.043
tot         28.118 125.215  38.470 191.804

 magnetization (x)

[...]

  FORCE on cell =-STRESS in cart. coord.  units (eV):
  Direction    XX          YY          ZZ          XY          YZ          ZX
  Alpha Z   831.00436   831.00436   831.00436
  Ewald     331.95580   450.23179-13255.13532  -208.59125     6.23337    76.04156
  Hartree  7374.54263  7357.74890 -3587.23448  -103.92656     4.32808    49.94781
  E(xc)    -919.43455  -919.12535  -921.50975    -0.16069     0.00179     0.03170
  Local  -10993.50197-11075.83889 13485.38242   300.97997   -10.77791  -121.00472
  n-local   240.39870   242.18720   235.44751    -0.10558    -0.03253    -0.57853
  augment   932.05839   922.48536   942.11254     4.36871     0.33909    -2.52304
  Kinetic  3333.81025  3316.83772  3406.30203    10.45222    -0.00623    -3.42124
  Fock    -1131.58271 -1125.88681 -1136.50457    -2.71190    -0.03591     1.44837
  Total      -0.74910    -0.35573    -0.13528     0.30492     0.04975    -0.05808
  in kB      -3.62984    -1.72372    -0.65549     1.47752     0.24108    -0.28144

 VOLUME and BASIS-vectors are now :
  energy-cutoff  :      520.00
  volume of cell :      330.64
      direct lattice vectors                 reciprocal lattice vectors
    -3.032117312 -4.994641318 -0.019784993    -0.167381860 -0.098605152  0.000950208
    -2.893635824  4.911811432 -0.012875171    -0.170203698  0.103322996  0.000822535
    -0.059279504 -0.007952460-11.267503516     0.000488400  0.000055079 -0.088753413

  length of vectors
     5.842993131  5.700805697 11.267662259     0.194269313  0.199112071  0.088754774

 FORCES acting on ions:
    Electron-Ion                     Ewald-Force                    Non-Local-Force
   0.169E+02 0.648E+00 -.718E-01   -.163E+02 -.466E+00 0.400E+00   -.589E+00 -.205E+00 -.218E+00
   0.227E+01 0.612E+01 -.283E+02   -.196E+01 -.612E+01 0.263E+02   -.295E+00 -.229E-02 0.174E+01
   -.162E+02 -.604E+01 0.383E+02   0.155E+02 0.545E+01 -.350E+02   0.719E+00 0.539E+00 -.300E+01
   -.224E+02 0.299E+02 0.151E+03   0.228E+02 -.302E+02 -.152E+03   -.390E+00 0.368E+00 0.589E+00
   0.390E+01 -.487E+02 0.224E+03   -.381E+01 0.487E+02 -.224E+03   -.130E+00 -.131E+00 0.459E+00
   -.599E+01 -.111E+02 0.307E+03   0.597E+01 0.112E+02 -.307E+03   0.561E-01 -.265E+00 0.398E-01
   0.228E+02 0.246E+02 0.111E+03   -.231E+02 -.248E+02 -.112E+03   0.243E+00 0.512E+00 0.143E+01
   -.209E+02 0.245E+02 -.108E+03   0.211E+02 -.251E+02 0.109E+03   -.269E+00 0.722E+00 -.137E+01
   -.715E+01 -.476E+02 -.213E+03   0.703E+01 0.479E+02 0.213E+03   0.168E+00 -.419E+00 -.554E+00
   0.524E+01 -.151E+02 -.323E+03   -.527E+01 0.151E+02 0.323E+03   0.817E-02 -.150E+00 0.153E-01
   0.338E+02 0.377E+02 -.156E+03   -.338E+02 -.379E+02 0.156E+03   -.123E+00 0.285E+00 -.541E+00
   -.508E+02 0.142E+02 0.554E+03   0.552E+02 -.116E+02 -.575E+03   -.380E+01 -.221E+01 0.188E+02
   0.408E+02 -.322E+02 0.561E+03   -.424E+02 0.334E+02 -.583E+03   0.140E+01 -.110E+01 0.190E+02
   -.560E+02 -.402E+01 0.559E+03   0.591E+02 0.511E+01 -.582E+03   -.277E+01 -.968E+00 0.197E+02
   0.216E+02 -.240E+02 0.579E+03   -.220E+02 0.261E+02 -.604E+03   0.160E+00 -.182E+01 0.221E+02
   -.191E+02 0.632E+02 -.379E+03   0.193E+02 -.662E+02 0.398E+03   -.907E-01 0.259E+01 -.164E+02
   0.290E+02 -.438E+02 -.387E+03   -.320E+02 0.427E+02 0.408E+03   0.266E+01 0.990E+00 -.183E+02
   -.124E+02 -.271E+02 -.411E+03   0.137E+02 0.265E+02 0.432E+03   -.118E+01 0.512E+00 -.184E+02
   0.493E+02 0.576E+02 -.372E+03   -.535E+02 -.611E+02 0.389E+03   0.372E+01 0.315E+01 -.154E+02
   0.450E+02 0.782E+02 0.383E+03   -.488E+02 -.824E+02 -.399E+03   0.333E+01 0.379E+01 0.141E+02
   0.459E+02 -.189E+02 0.414E+03   -.500E+02 0.176E+02 -.434E+03   0.363E+01 0.117E+01 0.171E+02
   -.241E+02 -.515E+02 0.382E+03   0.246E+02 0.512E+02 -.403E+03   -.460E+00 0.377E+00 0.178E+02
   -.333E+02 0.386E+02 0.359E+03   0.338E+02 -.406E+02 -.377E+03   -.379E+00 0.160E+01 0.156E+02
   0.287E+02 0.342E+02 -.531E+03   -.285E+02 -.332E+02 0.552E+03   -.242E+00 -.744E+00 -.187E+02
   0.503E+02 -.309E+01 -.550E+03   -.506E+02 0.423E+01 0.572E+03   0.262E+00 -.107E+01 -.190E+02
   -.706E+02 -.428E+02 -.563E+03   0.746E+02 0.450E+02 0.584E+03   -.361E+01 -.189E+01 -.180E+02
   -.549E+02 -.362E+02 -.599E+03   0.592E+02 0.395E+02 0.623E+03   -.384E+01 -.294E+01 -.209E+02
   0.176E+01 -.283E+01 0.256E+01   -.711E-14 0.121E-12 0.568E-12   -.182E+01 0.266E+01 -.239E+01

 POSITION                                       TOTAL-FORCE (eV/Angst)
     -2.90834      1.68532     -2.80870         0.012623     -0.037148      0.086848
     -1.51626      0.70650     -8.48511        -0.009662     -0.004300     -0.102331
     -2.97415     -3.31402     -2.80752         0.042281     -0.003491      0.067184
     -5.92131     -0.09703     -5.61416         0.020042      0.096616      0.020402
     -4.46948     -2.53367     -5.64311        -0.006269     -0.092588      0.029218
     -4.41255      2.41768     -5.69676         0.021430     -0.155149      0.148467
     -2.96354     -0.04829     -5.57979        -0.058545      0.152688      0.071897
     -0.03172     -0.02054     -0.07726        -0.011168      0.085317     -0.047452
     -1.48678      2.45482     -0.03434         0.019077     -0.064552     -0.058604
     -1.61203     -2.51838    -11.21909        -0.006667     -0.061546     -0.067091
     -2.99362     -0.06033     -0.05976        -0.028736      0.036592      0.003720
     -1.65801     -0.88316     -6.60018         0.010369      0.030319     -0.129494
     -2.84915      1.57810     -6.59370         0.048845     -0.001571      0.007898
     -3.05567     -3.37301     -6.57167        -0.016085      0.000146      0.038355
     -4.38123     -0.86538     -6.52876        -0.129584      0.003424      0.063283
     -1.51082      0.83466     -4.59410         0.094544     -0.022739     -0.182914
     -2.90039      3.23686     -4.68466         0.015041      0.029686     -0.052023
     -3.03689     -1.72202     -4.63267        -0.029564      0.009135     -0.041179
     -4.28704      0.89946     -4.58281         0.029954     -0.003070     -0.016025
     -1.35525      0.90349     -1.14937         0.030467      0.047909      0.089706
     -2.84666      3.27449     -1.08884         0.022499      0.013875      0.044674
     -3.02583     -1.74272     -0.96101        -0.046888      0.089001      0.063692
     -4.50136      0.80044     -1.02736         0.125058     -0.133638      0.102417
     -1.52202     -0.82053    -10.38564        -0.127447      0.122664     -0.031248
     -2.97535      1.58425    -10.37831         0.050666     -0.075466     -0.063606
     -3.24154     -3.44709    -10.30756        -0.048466     -0.012538     -0.052620
     -4.72829     -0.96564    -10.34754        -0.023814     -0.049577      0.006825
    total drift:                               -0.008081      0.013949      0.006623

  FREE ENERGIE OF THE ION-ELECTRON SYSTEM (eV)
  free  energy   TOTEN  =      -267.60452360 eV

  energy  without entropy=     -267.60452360  energy(sigma->0) =     -267.60452360

|           W    W    AA    RRRRR   N    N  II  N    N   GGGG   !!!           |
|           W    W   A  A   R    R  NN   N  II  NN   N  G    G  !!!           |
|           W    W  A    A  R    R  N N  N  II  N N  N  G       !!!           |
|           W WW W  AAAAAA  RRRRR   N  N N  II  N  N N  G  GGG   !            |
|           WW  WW  A    A  R   R   N   NN  II  N   NN  G    G                |
|           W    W  A    A  R    R  N    N  II  N    N   GGGG   !!!           |
|     Tetrahedron method does not include variations of the Fermi             |
|     occupations, so forces and stress will be inaccurate. We suggest        |
|     using a different smearing scheme ISMEAR = 1 or 2 for metals in         |
|     relaxations.                                                            |

 total charge

[...]

 magnetization (x)

# of ion       s       p       d       tot
    1        0.002   0.000   0.000   0.002
    2        0.003   0.001   0.000   0.004
    3        0.002   0.001   0.000   0.003
    4        0.037   0.034   3.701   3.772
    5        0.032   0.044   3.019   3.096
    6        0.032   0.040   3.335   3.408
    7        0.030   0.041   3.004   3.075
    8        0.028   0.040   2.980   3.049
    9        0.029   0.042   2.974   3.045
   10        0.036   0.037   3.549   3.622
   11        0.037   0.033   3.706   3.777
   12        0.007   0.050   0.000   0.057
   13        0.002  -0.085   0.000  -0.083
   14        0.002  -0.059   0.000  -0.056
   15        0.002  -0.053   0.000  -0.052
   16        0.002  -0.037   0.000  -0.035
   17        0.002  -0.060   0.000  -0.057
   18        0.002  -0.080   0.000  -0.078
   19        0.007   0.040   0.000   0.047
   20        0.007   0.044   0.000   0.051
   21        0.004  -0.030   0.000  -0.025
   22        0.001  -0.052   0.000  -0.051
   23        0.002  -0.033   0.000  -0.031
   24        0.001  -0.045   0.000  -0.044
   25        0.001  -0.053   0.000  -0.053
   26        0.005  -0.042   0.000  -0.037
   27        0.007   0.043   0.000   0.050
tot          0.321  -0.136  26.269  26.454

 BZINTS: Fermi energy:    2.861137;  221.000000 electrons
         Band energy:-0.367342E+04;  BLOECHL correction:   -0.028689