 vasp.6.4.2 20Jul23 (build Nov 27 2023 21:25:52) complex

 executed on             LinuxIFC date 2024.12.10  17:07:14

 INCAR:
   ALGO = All
   EDIFF = 0.00135
   ENCUT = 520
   HFSCREEN = 0.2
   IBRION = 2
   ICHARG = 1
   ISIF = 3
   ISMEAR = 0
   ISPIN = 2
   LHFCALC = True
   LMAXMIX = 4
   LORBIT = 11
   LREAL = Auto
   LWAVE = False
   MAGMOM = 3*0.6 8*3.0 16*0.6
   NELM = 100
   NSW = 99
   PREC = Accurate
   PRECFOCK = Fast
   SIGMA = 0.05

 POTCAR:    PAW_PBE Na_pv 19Sep2006
 POTCAR:    PAW_PBE Mn_pv 02Aug2007
 POTCAR:    PAW_PBE O 08Apr2002
|           W    W    AA    RRRRR   N    N  II  N    N   GGGG   !!!           |
|           W    W   A  A   R    R  NN   N  II  NN   N  G    G  !!!           |
|           W    W  A    A  R    R  N N  N  II  N N  N  G       !!!           |
|           W WW W  AAAAAA  RRRRR   N  N N  II  N  N N  G  GGG   !            |
|           WW  WW  A    A  R   R   N   NN  II  N   NN  G    G                |
|           W    W  A    A  R    R  N    N  II  N    N   GGGG   !!!           |
|     For optimal performance we recommend to set                             |
|       NCORE = 2 up to number-of-cores-per-socket                            |
|     This setting can greatly improve the performance of VASP for DFT.       |
|     The default, NCORE=1 might be grossly inefficient on modern             |
|     multi-core architectures or massively parallel machines. Do your        |
|     Unfortunately you need to use the default for GW and RPA                |
|     calculations (for HF NCORE is supported but not extensively tested      |
|     yet).                                                                   |

 POTCAR:    PAW_PBE Na_pv 19Sep2006
   VRHFIN =Na: p6s1

   TITEL  = PAW_PBE Na_pv 19Sep2006
   POMASS =   22.990; ZVAL   =    7.000    mass and valenz
   ENMAX  =  259.561; ENMIN  =  194.671 eV

 POTCAR:    PAW_PBE Mn_pv 02Aug2007
   VRHFIN =Mn: 3p4s3d

   TITEL  = PAW_PBE Mn_pv 02Aug2007
   POMASS =   54.938; ZVAL   =   13.000    mass and valenz
   ENMAX  =  269.864; ENMIN  =  202.398 eV

 POTCAR:    PAW_PBE O 08Apr2002
   VRHFIN =O: s2p4

   TITEL  = PAW_PBE O 08Apr2002
   POMASS =   16.000; ZVAL   =    6.000    mass and valenz
   ENMAX  =  400.000; ENMIN  =  300.000 eV

 Optimization of the real space projectors (new method)

 maximal supplied QI-value         = 17.01
 optimisation between [QCUT,QGAM] = [ 11.57, 23.30] = [ 37.45,152.03] Ry
 Optimized for a Real-space Cutoff    1.45 Angstroem

   l    n(q)    QCUT    max X(q) W(low)/X(q) W(high)/X(q)  e(spline)
   1     10    11.565     4.940    0.87E-04    0.13E-03    0.13E-06
   1     10    11.565     6.253    0.13E-03    0.19E-03    0.20E-06
   0     10    11.565    37.438    0.53E-04    0.73E-05    0.79E-07
   0     10    11.565     9.606    0.27E-04    0.60E-05    0.56E-07
 Optimization of the real space projectors (new method)

[...]

   l    n(q)    QCUT    max X(q) W(low)/X(q) W(high)/X(q)  e(spline)
   1     10    11.539     3.658    0.56E-04    0.12E-03    0.13E-06
   1     10    11.539     5.612    0.11E-03    0.23E-03    0.24E-06
   2      9    11.539    55.373    0.45E-04    0.92E-04    0.22E-06
   2      9    11.539    50.863    0.47E-04    0.95E-04    0.22E-06
   0     10    11.539    79.536    0.46E-04    0.27E-04    0.11E-06
   0     10    11.539    38.668    0.38E-04    0.25E-04    0.10E-06
 Optimization of the real space projectors (new method)

 maximal supplied QI-value         = 24.76
 optimisation between [QCUT,QGAM] = [ 11.64, 23.27] = [ 37.91,151.63] Ry
 Optimized for a Real-space Cutoff    1.14 Angstroem

   l    n(q)    QCUT    max X(q) W(low)/X(q) W(high)/X(q)  e(spline)
   0      8    11.635    20.381    0.10E-03    0.33E-03    0.24E-06
   0      8    11.635    15.268    0.11E-03    0.35E-03    0.26E-06
   1      7    11.635     5.964    0.24E-03    0.31E-03    0.30E-06
   1      7    11.635     5.382    0.22E-03    0.25E-03    0.26E-06
  PAW_PBE Na_pv 19Sep2006               :
  PAW_PBE Mn_pv 02Aug2007               :
  PAW_PBE O 08Apr2002                   :

 POSCAR: Na6 Mn8 O16
  positions in direct lattice
  velocities in cartesian coordinates
 exchange correlation table for  LEXCH =        8
   RHO(1)=    0.500       N(1)  =     2000
   RHO(2)=  100.500       N(2)  =     4000

 ion  position               nearest neighbor table
   1  0.318  0.667  0.250-  21 2.37
   2  0.176  0.324  0.751-
   3  0.822  0.162  0.249-  20 2.36
   4  0.996  0.993  0.495-  17 1.93  14 1.94  15 2.00  16 2.05  12 2.14  19 2.19   5 2.91   5 2.93
                             6 2.97   6 2.99   7 3.02   7 3.03
   5  0.993  0.494  0.498-  14 1.93  15 1.94  17 1.94  13 1.96  18 1.96  16 1.97   4 2.91   4 2.93
                             7 2.97   7 2.99   6 3.01   6 3.04
   6  0.495  0.996  0.504-  12 1.91  19 1.94  14 2.05  13 2.06  17 2.06  18 2.07   7 2.92   7 2.93
                             4 2.97   4 2.99   5 3.01   5 3.04
   7  0.495  0.495  0.493-  12 1.92  15 1.95  13 1.96  19 1.96  18 1.97  16 2.01   6 2.92   6 2.93
                             5 2.97   5 2.99   4 3.02   4 3.03
   8  0.007  0.004  0.008-  27 1.92  26 1.94  21 1.94  24 1.95  20 1.98  23 1.98   9 2.91   9 2.93
                            10 2.98  10 2.98  11 3.02  11 3.03
   9  0.007  0.506  0.003-  27 1.92  26 1.94  21 1.94  25 1.95  20 1.95  22 1.96   8 2.91   8 2.93
                            11 2.97  11 2.99  10 3.02  10 3.03
  10  0.507  0.005  0.994-  24 1.94  23 1.97  25 1.99  22 2.00  26 2.14  21 2.19  11 2.92  11 2.93
                             8 2.98   8 2.98   9 3.02   9 3.03
  11  0.507  0.504  0.004-  25 1.94  22 1.95  24 1.99  23 2.02  27 2.13  20 2.19  10 2.92  10 2.93
                             9 2.97   9 2.99   8 3.02   8 3.03
  12  0.351  0.183  0.586-   6 1.91   7 1.92   4 2.14
  13  0.313  0.637  0.587-   7 1.96   5 1.96   6 2.06
  14  0.843  0.168  0.584-   5 1.93   4 1.94   6 2.05
  15  0.813  0.652  0.580-   5 1.94   7 1.95   4 2.00
  16  0.165  0.340  0.404-   5 1.97   7 2.01   4 2.05
  17  0.158  0.822  0.412-   4 1.93   5 1.94   6 2.06
  18  0.676  0.339  0.407-   5 1.96   7 1.97   6 2.07
  19  0.630  0.822  0.403-   6 1.94   7 1.96   4 2.19
  20  0.144  0.327  0.102-   9 1.95   8 1.98  11 2.19   3 2.36
  21  0.151  0.820  0.097-   9 1.94   8 1.94  10 2.19   1 2.37
  22  0.677  0.335  0.086-  11 1.95   9 1.96  10 2.00
  23  0.672  0.847  0.091-  10 1.97   8 1.98  11 2.02
  24  0.327  0.169  0.919-  10 1.94   8 1.95  11 1.99
  25  0.332  0.659  0.917-  11 1.94   9 1.95  10 1.99
  26  0.876  0.188  0.911-   8 1.94   9 1.94  10 2.14
  27  0.867  0.691  0.915-   9 1.92   8 1.92  11 2.13

  LATTYP: Found a triclinic cell.
 ALAT       =     6.0510969385
 B/A-ratio  =     0.9658044903
 C/A-ratio  =     1.8644651620
 COS(alpha) =     0.0033061110
 COS(beta)  =     0.0110348162
 COS(gamma) =     0.4992297159

  Lattice vectors:

 A1 = (  -6.0506597685,  -0.0645644379,  -0.0334956551)
 A2 = (  -2.9714410913,   5.0323790593,  -0.0099455071)
 A3 = (  -0.0618838448,  -0.0155198830, -11.2818790366)

Analysis of symmetry for initial positions (statically):
 Subroutine PRICEL returns:
 Original cell was already a primitive cell.

 Routine SETGRP: Setting up the symmetry group for a
 triclinic supercell.

 Subroutine GETGRP returns: Found  1 space group operations
 (whereof  1 operations were pure point group operations)
 out of a pool of  2 trial point group operations.

The static configuration has the point symmetry C_1 .

Analysis of symmetry for dynamics (positions and initial velocities):
 Subroutine PRICEL returns:
 Original cell was already a primitive cell.

[...]

The dynamic configuration has the point symmetry C_1 .

Analysis of structural, dynamic, and magnetic symmetry:
 Subroutine PRICEL returns:
 Original cell was already a primitive cell.

 Routine SETGRP: Setting up the symmetry group for a
 triclinic supercell.

 Subroutine GETGRP returns: Found  1 space group operations
 (whereof  1 operations were pure point group operations)
 out of a pool of  2 trial point group operations.

The overall configuration has the point symmetry C_1 .

 Subroutine INISYM returns: Found  1 space group operations
 (whereof  1 operations are pure point group operations),
 and found     1 'primitive' translations

                                     Primitive cell

  volume of cell :     345.6777

  direct lattice vectors                    reciprocal lattice vectors
    -3.079218677 -5.096943497 -0.023550148    -0.164242150 -0.096977112  0.001034314
    -2.971441091  5.032379059 -0.009945507    -0.166347836  0.100492213  0.000774216
    -0.061883845 -0.015519883-11.281879037     0.000489488  0.000113844 -0.088640558

  length of vectors
     5.954911862  5.844176595 11.282059434     0.190738339  0.194347335  0.088641983

  position of ions in fractional coordinates (direct lattice)
     0.317769177  0.667324999  0.249956784
     0.175571939  0.324085662  0.750784683
     0.821965810  0.161921224  0.249180956
     0.995758314  0.993400716  0.495169898
     0.993073605  0.494156607  0.498349602
     0.495059649  0.995836858  0.504298438
     0.495094133  0.495428602  0.492872785
     0.006870918  0.003915419  0.007565718
     0.006819044  0.506007928  0.002540459
     0.507340913  0.004826564  0.994070789
     0.507482733  0.503830149  0.004285454
     0.350876215  0.182627639  0.586224796
     0.312580305  0.637308638  0.586713510
     0.843332992  0.168003937  0.584441080
     0.813477159  0.651926504  0.579899402
     0.165224334  0.339515044  0.403838161
     0.158135811  0.821740052  0.411741718
     0.676345958  0.338800852  0.407035458
     0.630122087  0.822102388  0.403154337
     0.143942291  0.327303680  0.101539743
     0.151032781  0.820267045  0.096664739
     0.677378507  0.335304445  0.085679738
     0.672307594  0.846828662  0.090940764
     0.326764211  0.168536682  0.918766861
     0.332445516  0.659199738  0.917495590
     0.875786056  0.188364323  0.911290092
     0.867441948  0.691435643  0.915498445

  ion indices of the primitive-cell ions
   primitive index   ion index
                 1           1
                 2           2
                 3           3
                 4           4
                 5           5
                 6           6
                 7           7
                 8           8
                 9           9
                10          10
                11          11
                12          12
                13          13
                14          14
                15          15
                16          16
                17          17
                18          18
                19          19
                20          20
                21          21
                22          22
                23          23
                24          24
                25          25
                26          26
                27          27

 KPOINTS: pymatgen with grid density = 1046 / numb

Automatic generation of k-mesh.
 Grid dimensions read from file:
 generate k-points for:    4    4    2

 Generating k-lattice:

  Cartesian coordinates                     Fractional coordinates (reciprocal lattice)
[...]

 Conjugate gradient step on ions:
 trial-energy change:   -0.010990  1 .order   -0.010414   -0.034343    0.013514
  (g-gl).g = 0.245E-01      g.g   = 0.312E-01  gl.gl    = 0.765E-01
 g(Force)  = 0.234E-01   g(Stress)= 0.777E-02 ortho     = 0.738E-02
 gamma     =   0.32101
 trial     =   1.02442
 opt step  =   0.73513  (harmonic =   0.73513) maximal distance =0.00694656
 next E    =  -267.624565   (d E  =  -0.01232)

--------------------------------------- Ionic step        7  -------------------------------------------

[...]

 eigenvalue-minimisations  :     0
 total energy-change (2. order) : 0.9030035E-01  (-0.5984192E-01)
 number of electron     220.9999998 magnetization      26.9999999
 augmentation part       80.9601532 magnetization      19.5483710

[...]

--------------------------------------- Iteration      7(   6)  ---------------------------------------

 eigenvalue-minimisations  :     0
 total energy-change (2. order) :-0.4729198E-03  (-0.1483277E-03)
 number of electron     220.9999998 magnetization      26.9999999
 augmentation part       80.9883536 magnetization      19.5444023

 Free energy of the ion-electron system (eV)
  alpha Z        PSCENC =       831.00435557
  Ewald energy   TEWEN  =    -12472.89879943
  -Hartree energ DENC   =    -11144.26251287
  -exchange      EXHF   =       675.67818980
  -V(xc)+E(xc)   XCENC  =       823.69815190
  PAW double counting   =     27247.62456104   -27875.68346857
  entropy T*S    EENTRO =        -0.00426143
  eigenvalues    EBANDS =     -3674.11911280
  atomic energy  EATOM  =     25321.33763079
  free energy    TOTEN  =      -267.62527546 eV

  energy without entropy =     -267.62101403  energy(sigma->0) =     -267.62314475
  exchange ACFDT corr.  =        -0.01416736  see jH, gK, PRB 81, 115126

  average scaling for gradient   0.9939

 average (electrostatic) potential at core
  the test charge radii are     0.9254  0.9577  0.7215
  (the norm of the test charge is              1.0000)
       1 -39.0046       2 -38.6409       3 -39.0281       4 -66.0584       5 -67.7591
       6 -67.0399       7 -67.6847       8 -66.8484       9 -66.7720      10 -65.9148
      11 -65.3875      12 -66.0964      13 -66.6376      14 -66.5050      15 -66.5470
      16 -66.4673      17 -66.5259      18 -66.6784      19 -66.0331      20 -65.2035
      21 -65.5755      22 -65.7878      23 -65.7585      24 -65.8321      25 -65.7882
      26 -65.5794      27 -65.2795

 E-fermi :   2.8833     XC(G=0):  -8.1275     alpha+bet :-10.1919

 Fermi energy:         2.8833195438

[...]

 k-point    20 :       0.5000    0.5000    0.5000
  band No.  band energies     occupation
      1     -53.7488      1.00000
      2     -53.7281      1.00000
      3     -53.7097      1.00000
      4     -53.6696      1.00000
      5     -53.6544      1.00000
      6     -53.5932      1.00000
      7     -53.2847      1.00000
      8     -53.2740      1.00000
      9     -53.2390      1.00000
     10     -52.8286      1.00000
     11     -52.7877      1.00000
     12     -52.7521      1.00000
     13     -52.7417      1.00000
     14     -52.7180      1.00000
     15     -52.6837      1.00000
     16     -52.6673      1.00000
     17     -52.6370      1.00000
     18     -52.5189      1.00000
     19     -52.3711      1.00000
     20     -52.3473      1.00000
     21     -52.2755      1.00000
     22     -52.0103      1.00000
     23     -51.9799      1.00000
     24     -51.8361      1.00000
     25     -22.6490      1.00000
     26     -22.5388      1.00000
     27     -22.5161      1.00000
     28     -22.4891      1.00000
     29     -22.4766      1.00000
     30     -22.4617      1.00000
     31     -22.1480      1.00000
     32     -22.1278      1.00000
     33     -22.1215      1.00000
     34     -19.1423      1.00000
     35     -18.9621      1.00000
     36     -18.4160      1.00000
     37     -18.2989      1.00000
     38     -18.2384      1.00000
     39     -18.2199      1.00000
     40     -18.0436      1.00000
     41     -17.9352      1.00000
     42     -17.8628      1.00000
     43     -17.8264      1.00000
     44     -17.6149      1.00000
     45     -17.5783      1.00000
     46     -17.2364      1.00000
     47     -17.2040      1.00000
     48     -16.9783      1.00000
     49     -16.9467      1.00000
     50      -5.8406      1.00000
     51      -5.7974      1.00000
     52      -5.6922      1.00000
     53      -5.5292      1.00000
     54      -5.3226      1.00000
     55      -5.2105      1.00000
     56      -5.0679      1.00000
     57      -5.0022      1.00000
     58      -4.9768      1.00000
     59      -4.9240      1.00000
     60      -4.8595      1.00000
[...]
    178      19.0177      0.00000
    179      19.0810      0.00000
    180      19.2469      0.00000
    181      19.4362      0.00000
    182      19.5087      0.00000
    183      19.6416      0.00000
    184      19.7128      0.00000
    185      19.9140      0.00000
    186      20.0175      0.00000
    187      20.3051      0.00000
    188      20.4181      0.00000
    189      20.5822      0.00000
    190      21.1769      0.00000
    191      21.4677      0.00000
    192      21.6274      0.00000
 Fermi energy:         2.8833195438

 spin component 2

[...]

 k-point    20 :       0.5000    0.5000    0.5000
  band No.  band energies     occupation
      1     -49.1305      1.00000
      2     -49.0995      1.00000
      3     -49.0664      1.00000
      4     -48.9966      1.00000
      5     -48.8443      1.00000
      6     -48.8066      1.00000
      7     -48.4456      1.00000
      8     -48.2371      1.00000
      9     -48.1790      1.00000
     10     -48.1753      1.00000
     11     -48.1170      1.00000
     12     -48.0429      1.00000
     13     -48.0084      1.00000
     14     -47.9401      1.00000
     15     -47.8288      1.00000
     16     -47.5349      1.00000
     17     -47.2255      1.00000
     18     -47.0852      1.00000
     19     -47.0688      1.00000
     20     -46.8252      1.00000
     21     -46.4546      1.00000
     22     -46.2606      1.00000
     23     -46.1656      1.00000
     24     -45.4709      1.00000
     25     -22.6462      1.00000
     26     -22.5354      1.00000
     27     -22.5149      1.00000
     28     -22.4881      1.00000
     29     -22.4757      1.00000
     30     -22.4588      1.00000
     31     -22.1437      1.00000
     32     -22.1255      1.00000
     33     -22.1183      1.00000
     34     -19.1853      1.00000
     35     -18.9527      1.00000
     36     -18.4865      1.00000
     37     -18.2846      1.00000
     38     -18.2070      1.00000
     39     -18.1811      1.00000
     40     -18.1190      1.00000
     41     -17.9938      1.00000
     42     -17.7369      1.00000
     43     -17.6923      1.00000
     44     -17.6335      1.00000
     45     -17.5613      1.00000
     46     -17.2183      1.00000
     47     -17.1980      1.00000
     48     -16.8271      1.00000
     49     -16.8031      1.00000
     50      -4.5091      1.00000
     51      -4.3943      1.00000
     52      -4.3637      1.00000
     53      -4.2602      1.00000
     54      -4.2490      1.00000
     55      -4.1006      1.00000
     56      -3.7826      1.00000
     57      -3.6928      1.00000
     58      -3.6061      1.00000
     59      -3.5850      1.00000
     60      -3.5152      1.00000
[...]
    178      19.7177      0.00000
    179      19.7790      0.00000
    180      19.9757      0.00000
    181      20.1352      0.00000
    182      20.2329      0.00000
    183      20.3754      0.00000
    184      20.4389      0.00000
    185      20.6387      0.00000
    186      20.7705      0.00000
    187      20.8850      0.00000
    188      21.1222      0.00000
    189      21.2361      0.00000
    190      21.6892      0.00000
    191      21.9850      0.00000
    192      22.0756      0.00000

[...]

 soft charge-density along one line, spin component           2
         0         1         2         3         4         5         6         7         8         9
 total charge-density along one line

------------------------ aborting loop because EDIFF is reached ----------------------------------------

[...]

  FORCE on cell =-STRESS in cart. coord.  units (eV):
  Direction    XX          YY          ZZ          XY          YZ          ZX
  Alpha Z   831.00436   831.00436   831.00436
  Ewald     331.95580   450.23179-13255.13532  -208.59125     6.23337    76.04156
  Hartree  7374.17131  7357.36884 -3587.09304  -103.91124     4.27034    49.87798
  E(xc)    -919.41019  -919.10046  -921.48529    -0.16048     0.00177     0.03161
  Local  -10993.32719-11075.67156 13484.94331   300.95278   -10.62979  -120.83032
  n-local   240.59784   242.33817   235.54146    -0.09728    -0.06266    -0.60870
  augment   932.09796   922.50228   942.17754     4.38041     0.28035    -2.58181
  Kinetic  3333.69112  3316.67976  3406.28114    10.45539    -0.07202    -3.50260
  Fock    -1131.50553 -1125.79710 -1136.42456    -2.72322     0.00119     1.48729
  Total      -0.72452    -0.44391    -0.19040     0.30511     0.02255    -0.08498
  in kB      -3.51077    -2.15102    -0.92263     1.47846     0.10928    -0.41180

 VOLUME and BASIS-vectors are now :
  energy-cutoff  :      520.00
  volume of cell :      330.64
      direct lattice vectors                 reciprocal lattice vectors
    -3.032117312 -4.994641318 -0.019784993    -0.167381860 -0.098605152  0.000950208
    -2.893635824  4.911811432 -0.012875171    -0.170203698  0.103322996  0.000822535
    -0.059279504 -0.007952460-11.267503516     0.000488400  0.000055079 -0.088753413

  length of vectors
     5.842993131  5.700805697 11.267662259     0.194269313  0.199112071  0.088754774

 FORCES acting on ions:
    Electron-Ion                     Ewald-Force                    Non-Local-Force
   0.169E+02 0.649E+00 0.462E-01   -.163E+02 -.466E+00 0.400E+00   -.589E+00 -.208E+00 -.284E+00
   0.227E+01 0.611E+01 -.284E+02   -.196E+01 -.612E+01 0.263E+02   -.301E+00 -.106E-02 0.181E+01
   -.162E+02 -.605E+01 0.384E+02   0.155E+02 0.545E+01 -.350E+02   0.724E+00 0.545E+00 -.306E+01
   -.224E+02 0.299E+02 0.151E+03   0.228E+02 -.302E+02 -.152E+03   -.389E+00 0.365E+00 0.578E+00
   0.390E+01 -.487E+02 0.224E+03   -.381E+01 0.487E+02 -.224E+03   -.131E+00 -.111E+00 0.452E+00
   -.600E+01 -.111E+02 0.307E+03   0.597E+01 0.112E+02 -.307E+03   0.610E-01 -.255E+00 0.436E-01
   0.229E+02 0.245E+02 0.111E+03   -.231E+02 -.248E+02 -.112E+03   0.254E+00 0.492E+00 0.141E+01
   -.209E+02 0.245E+02 -.108E+03   0.211E+02 -.251E+02 0.109E+03   -.271E+00 0.715E+00 -.136E+01
   -.716E+01 -.476E+02 -.213E+03   0.703E+01 0.479E+02 0.213E+03   0.165E+00 -.414E+00 -.552E+00
   0.525E+01 -.150E+02 -.323E+03   -.527E+01 0.151E+02 0.323E+03   0.237E-02 -.146E+00 0.902E-02
   0.338E+02 0.376E+02 -.156E+03   -.338E+02 -.379E+02 0.156E+03   -.128E+00 0.281E+00 -.529E+00
   -.508E+02 0.142E+02 0.554E+03   0.552E+02 -.116E+02 -.575E+03   -.380E+01 -.222E+01 0.188E+02
   0.409E+02 -.322E+02 0.561E+03   -.424E+02 0.334E+02 -.583E+03   0.135E+01 -.108E+01 0.190E+02
   -.560E+02 -.403E+01 0.559E+03   0.591E+02 0.511E+01 -.582E+03   -.272E+01 -.955E+00 0.198E+02
   0.217E+02 -.240E+02 0.579E+03   -.220E+02 0.261E+02 -.604E+03   0.170E+00 -.183E+01 0.221E+02
   -.191E+02 0.632E+02 -.379E+03   0.193E+02 -.662E+02 0.398E+03   -.975E-01 0.258E+01 -.165E+02
   0.290E+02 -.438E+02 -.387E+03   -.320E+02 0.427E+02 0.408E+03   0.261E+01 0.989E+00 -.184E+02
   -.124E+02 -.271E+02 -.411E+03   0.137E+02 0.265E+02 0.432E+03   -.114E+01 0.496E+00 -.184E+02
   0.493E+02 0.576E+02 -.372E+03   -.535E+02 -.611E+02 0.389E+03   0.373E+01 0.314E+01 -.155E+02
   0.450E+02 0.782E+02 0.383E+03   -.488E+02 -.824E+02 -.399E+03   0.333E+01 0.379E+01 0.141E+02
   0.459E+02 -.189E+02 0.414E+03   -.500E+02 0.176E+02 -.434E+03   0.365E+01 0.118E+01 0.170E+02
   -.241E+02 -.515E+02 0.382E+03   0.246E+02 0.512E+02 -.403E+03   -.471E+00 0.394E+00 0.178E+02
   -.333E+02 0.386E+02 0.359E+03   0.338E+02 -.406E+02 -.377E+03   -.379E+00 0.158E+01 0.155E+02
   0.287E+02 0.342E+02 -.531E+03   -.285E+02 -.332E+02 0.552E+03   -.237E+00 -.731E+00 -.186E+02
   0.503E+02 -.309E+01 -.550E+03   -.506E+02 0.423E+01 0.572E+03   0.268E+00 -.108E+01 -.189E+02
   -.706E+02 -.428E+02 -.563E+03   0.746E+02 0.450E+02 0.584E+03   -.364E+01 -.191E+01 -.179E+02
   -.548E+02 -.362E+02 -.599E+03   0.592E+02 0.395E+02 0.623E+03   -.384E+01 -.295E+01 -.209E+02
   0.179E+01 -.277E+01 0.266E+01   0.121E-12 0.114E-12 -.455E-12   -.181E+01 0.266E+01 -.257E+01

 POSITION                                       TOTAL-FORCE (eV/Angst)
     -2.90834      1.68532     -2.80870         0.006886     -0.036945      0.104331
     -1.51626      0.70650     -8.48511        -0.010606     -0.007553     -0.115624
     -2.97415     -3.31402     -2.80752         0.038946     -0.007472      0.085384
     -5.92131     -0.09703     -5.61416         0.015382      0.070201     -0.008311
     -4.46948     -2.53367     -5.64311        -0.006137     -0.014192      0.010197
     -4.41255      2.41768     -5.69676         0.014814     -0.084034      0.150948
     -2.96354     -0.04829     -5.57979        -0.022217      0.069309     -0.003320
     -0.03172     -0.02054     -0.07726        -0.010373      0.037803     -0.021834
     -1.48678      2.45482     -0.03434         0.000445     -0.019305     -0.049952
     -1.61203     -2.51838    -11.21909        -0.002402     -0.035760     -0.056384
     -2.99362     -0.06033     -0.05976        -0.032071      0.012263      0.033925
     -1.65801     -0.88316     -6.60018         0.028390      0.013642     -0.076821
     -2.84915      1.57810     -6.59370         0.018906      0.013250      0.037061
     -3.05567     -3.37301     -6.57167         0.004038      0.006856      0.072983
     -4.38123     -0.86538     -6.52876        -0.117666     -0.008306      0.075702
     -1.51082      0.83466     -4.59410         0.089379     -0.029247     -0.189172
     -2.90039      3.23686     -4.68466        -0.009254      0.036575     -0.091357
     -3.03689     -1.72202     -4.63267        -0.001083      0.001972     -0.077851
     -4.28704      0.89946     -4.58281         0.018393      0.001775     -0.070140
     -1.35525      0.90349     -1.14937        -0.000911      0.027738      0.077406
     -2.84666      3.27449     -1.08884         0.054285      0.028660      0.026208
     -3.02583     -1.74272     -0.96101        -0.057318      0.100988      0.046049
     -4.50136      0.80044     -1.02736         0.117110     -0.130067      0.077417
     -1.52202     -0.82053    -10.38564        -0.119059      0.116921     -0.003376
     -2.97535      1.58425    -10.37831         0.055489     -0.085316     -0.027191
     -3.24154     -3.44709    -10.30756        -0.083149     -0.040446     -0.022430
     -4.72829     -0.96564    -10.34754         0.009782     -0.039311      0.016149
    total drift:                                0.032526      0.092276     -0.137341

  FREE ENERGIE OF THE ION-ELECTRON SYSTEM (eV)
  free  energy   TOTEN  =      -267.62527546 eV

  energy  without entropy=     -267.62101403  energy(sigma->0) =     -267.62314475

 d Force = 0.4309581E-03[-0.122E-02, 0.209E-02]  d Energy = 0.2043431E-02-0.161E-02
 d Force =-0.1887856E+01[-0.192E+01,-0.185E+01]  d Ewald  = 0.1461489E+02-0.165E+02

 reached required accuracy - stopping structural energy minimisation

 total charge

[...]

 magnetization (x)

# of ion       s       p       d       tot
    1        0.002   0.000   0.000   0.002
    2        0.003   0.001   0.000   0.004
    3        0.002   0.001   0.000   0.003
    4        0.037   0.034   3.699   3.771
    5        0.032   0.044   3.020   3.097
    6        0.032   0.040   3.328   3.400
    7        0.030   0.041   3.005   3.076
    8        0.028   0.040   2.980   3.048
    9        0.029   0.042   2.974   3.045
   10        0.036   0.037   3.551   3.624
   11        0.037   0.033   3.704   3.774
   12        0.006   0.050   0.000   0.056
   13        0.002  -0.085   0.000  -0.083
   14        0.002  -0.059   0.000  -0.057
   15        0.002  -0.053   0.000  -0.051
   16        0.002  -0.036   0.000  -0.034
   17        0.002  -0.060   0.000  -0.057
   18        0.002  -0.081   0.000  -0.079
   19        0.007   0.040   0.000   0.047
   20        0.007   0.045   0.000   0.052
   21        0.004  -0.028   0.000  -0.024
   22        0.001  -0.050   0.000  -0.049
   23        0.002  -0.031   0.000  -0.029
   24        0.001  -0.043   0.000  -0.043
   25        0.001  -0.052   0.000  -0.051
   26        0.005  -0.040   0.000  -0.036
   27        0.007   0.042   0.000   0.049
tot          0.320  -0.128  26.261  26.453